%BLOCK LATTICE_CART
4.308867 0 0
0 4.308867 0
0 0 4.308867
%ENDBLOCK LATTICE_CART

#VARVOL=120 

%BLOCK POSITIONS_ABS
Li 0.0 0.0 0.0 # Li1 % NUM=1
Li 0.0 0.0 0.0 # Li2 % NUM=1
Fe 0.0 0.0 0.0 # Fe1 % NUM=1
F 0.0 0.0 0.0 # F1 % NUM=1
F 0.0 0.0 0.0 # F2 % NUM=1
O  1.631308  0.277672  1.951448  # ox-1 % NUM=1
O  3.565176  1.312492  2.461464  # ox-1 % NUM=1
O  0.434824  2.687508  1.538536  # ox-1 % NUM=1
O  2.368692  3.722328  2.048552  # ox-1 % NUM=1
C  2.340798  1.312741  2.118875  # ox-1 % NUM=1
C  1.659202  2.687259  1.881125  # ox-1 % NUM=1
%ENDBLOCK POSITIONS_ABS

##SPECIES=Li,Fe,F
##NATOM=3-9
##FOCUS=3
 
#SYMMOPS={2,4}
##SGRANK=20
#NFORM=2
##ADJGEN=0-1
#SLACK=0.25
#OVERLAP=0.1
##MINSEP=1.8-3 O-O=2.5 Li-Li=2.5 Fe-Fe=2.5 Fe-C=2.2 Li-C=2.2
##MINSEP=1.0 Li-Li=2.98 Li-C=3.16 Li-O=1.99 Li-F=1.83 Li-Fe=3.26 C-C=1.48 C-O=1.27 C-F=3.23 C-Fe=2.31 O-O=2.17 O-F=2.61 O-Fe=1.87 F-F=3.47 F-Fe=1.94 Fe-Fe=3.65
## Revised MINSEP from run1
#MINSEP=1.0 Li-Li=2.78 Li-C=2.79 Li-O=1.93 Li-F=1.81 Li-Fe=3.31 C-C=1.49 C-O=1.28 C-F=2.87 C-Fe=2.88 O-O=2.27 O-F=2.82 O-Fe=2.12 F-F=2.94 F-Fe=2.02 Fe-Fe=4.81
#COMPACT
#CELLADAPT
##SYSTEM={Rhom,Tric,Mono,Cubi,Hexa,Orth,Tetra}

#SPIN=4 4 Fe
 
KPOINTS_MP_SPACING 0.07
 
SYMMETRY_GENERATE
SNAP_TO_SYMMETRY
 
%BLOCK SPECIES_POT
QC5
%ENDBLOCK SPECIES_POT
 
%BLOCK EXTERNAL_PRESSURE
0 0 0
0 0
0
%ENDBLOCK EXTERNAL_PRESSURE
