
%BLOCK LATTICE_CART
10.452988  0.000000  0.000000
 0.000000  6.086495  0.000000
 0.000000  0.000000  4.753437
%ENDBLOCK LATTICE_CART

#TARGVOL=100

%BLOCK POSITIONS_ABS
Li  3.000000  3.000000  3.000000 # Li4 % NUM=1
Fe  8.168949  1.521624  2.490639 # Fe1 % NUM=1
O  0.0  0.0 0.0  #  SO4-1 % 
O  1.750 1.750 0.0 #  SO4-1 %
O  1.750 0.0    1.750  #  SO4-1 % 
O  0.0    1.750 1.750 #  SO4-1 % 
S  0.875   0.875 0.875  #  SO4-1 % 
F  0.0  0.0 0.0  #  F-1 % 
%ENDBLOCK POSITIONS_ABS

#SYMMOPS=2-4
###SGRANK=20
#NFORM=2
#SLACK=0.25
#OVERLAP=0.1
#COMPACT
#CELLADAPT
### Updated MINSEP according to Li2FeSO5
#MINSEP=1.0 Li-Li=3.5-4.0 Li-O=1.90-2.10 Li-S=2.65-2.85 Li-Fe=2.90-3.10 O-O=2.20-2.40 O-S=1.48 O-Fe=2.00-2.20 S-S=3.80-4.00 S-Fe=3.20-3.40 Fe-Fe=3.60-3.80 F-F=3.5-4.2 Li-F=1.8-2.1 Fe-F=1.8-2.2 S-F=3.4-3.8 O-F=2.5-2.9 
##ADJGEN=0-1
#SPIN=4 4 Fe

KPOINTS_MP_SPACING 0.07
 
SYMMETRY_GENERATE
SNAP_TO_SYMMETRY
 
%BLOCK SPECIES_POT
QC5
%ENDBLOCK SPECIES_POT
 
%BLOCK EXTERNAL_PRESSURE
0 0 0
0 0
0
%ENDBLOCK EXTERNAL_PRESSURE
