#######################################################
#CASTEP cell file: refined-structures/000-2LFP-2341-6442-5.cell
#Created using the Atomic Simulation Environment (ASE)#
#######################################################

%BLOCK LATTICE_CART
 4.747753  0.000000  0.000000
 0.000000  6.078963  0.000000
 0.000000  0.000000 10.443050
%ENDBLOCK LATTICE_CART

%BLOCK POSITIONS_ABS
Li  2.377820  4.571660  7.837277
Li  2.369933  1.532179  7.827298
Li  0.003943  4.546785  2.605773
Li  4.743810  1.507303  2.615752
O  1.024933  4.292436  9.550964
O  0.993916  3.049878  7.379273
O  1.025421  1.819714  9.560827
O  3.604785  3.050911  8.834865
O  3.722821  1.252954  6.113611
O  3.753838  0.010396  8.285303
O  3.722332  4.859195  6.103749
O  1.142968  0.011429  6.829711
O  3.398809  4.826009  0.892086
O  3.367792  6.068567  3.063778
O  3.399298  1.219768  0.882224
O  1.230909  6.067534  1.608186
O  1.348944  1.786528  4.329439
O  1.379961  3.029085  2.157747
O  1.348455  4.259250  4.339301
O  3.516844  3.028052  3.613339
P  0.394296  3.054161  8.814697
P  4.353457  0.014680  6.849878
P  2.768173  6.064284  1.628353
P  1.979580  3.024802  3.593172
Fe  2.493246  3.031023  0.327601
Fe  2.254507  6.070505  4.893924
Fe  0.119369  0.008459 10.115449
Fe  4.628384  3.047940  5.549126
%ENDBLOCK POSITIONS_ABS

