#######################################################
#CASTEP cell file: refined-structures/001-2LFP_REF-mp-19017.cell
#Created using the Atomic Simulation Environment (ASE)#
#######################################################

%BLOCK LATTICE_CART
10.442731  0.000000  0.000000
 0.000000  6.075279  0.000000
 0.000000  0.000000  4.746870
%ENDBLOCK LATTICE_CART

%BLOCK POSITIONS_ABS
Li  0.000000  0.000000  0.000000
Li  5.221366  3.037639  2.373435
Li  5.221366  0.000000  2.373435
Li  0.000000  3.037639  0.000000
O  4.219805  4.556459  1.145948
O  8.721041  3.320642  3.394599
O  8.721041  5.792276  3.394599
O  9.441171  4.556459  1.227487
O  0.453008  4.556459  3.364726
O  1.001560  1.518820  3.519383
O  1.721690  0.283003  1.352271
O  6.943056  2.754636  1.021164
O  3.499675  3.320642  3.725706
O  3.499675  5.792276  3.725706
O  1.721690  2.754636  1.352271
O  4.768357  1.518820  0.991291
O  5.674374  4.556459  3.755579
O  6.222926  1.518820  3.600922
O  6.943056  0.283003  1.021164
O  9.989723  1.518820  1.382144
P  0.980864  1.518820  1.982979
P  4.240502  4.556459  4.356414
P  6.202230  1.518820  0.390456
P  9.461867  4.556459  2.763891
Fe  8.158699  1.518820  2.489570
Fe  7.505398  4.556459  0.116135
Fe  2.937333  1.518820  4.630730
Fe  2.284032  4.556459  2.257295
%ENDBLOCK POSITIONS_ABS

