#######################################################
#CASTEP cell file: refined-structures/002-2LFP-1404-3291-3.cell
#Created using the Atomic Simulation Environment (ASE)#
#######################################################

%BLOCK LATTICE_CART
 4.747564  0.013057  0.000000
-0.023063  6.078975  0.000000
 0.000000  0.000000 10.435344
%ENDBLOCK LATTICE_CART

%BLOCK POSITIONS_ABS
Li  1.164801  4.583712  4.429696
Li  3.559700  1.508320  9.647367
Li  1.180763  1.540444  4.450184
Li  3.543737  4.551588  9.667856
O  0.143416  4.261670  7.933397
O  0.184656  3.036357 10.116334
O  0.152852  1.790892  7.947088
O  2.317775  3.039254  8.657829
O  4.581084  1.830362  2.715726
O  4.539844  3.055675  4.898662
O  4.571648  4.301140  2.729416
O  2.406725  3.052779  3.440157
O  4.701513  0.023090  5.446988
O  2.527607  1.253186  6.165281
O  2.565231  0.017630  3.989672
O  2.514866  4.860914  6.167209
O  0.022987  6.068942  0.229316
O  2.196893  4.838847  0.947609
O  2.159269  6.074403  9.207344
O  2.209634  1.231119  0.949537
P  0.781334  3.032141  8.680678
P  3.943167  3.059891  3.463006
P  3.164416  0.019821  5.425217
P  1.560084  6.072211  0.207546
Fe  1.042951  6.075586  7.380541
Fe  3.681550  0.016447  2.162869
Fe  1.298416  3.037152  1.507157
Fe  3.426084  3.054880  6.724828
%ENDBLOCK POSITIONS_ABS

