#######################################################
#CASTEP cell file: refined-structures/004-2LFP-27197-4566-4.cell
#Created using the Atomic Simulation Environment (ASE)#
#######################################################

%BLOCK LATTICE_CART
 4.748249  0.000000  0.000000
 0.000000  6.073681  0.000000
 0.000000  0.000000 10.440855
%ENDBLOCK LATTICE_CART

%BLOCK POSITIONS_ABS
Li  2.365358  4.543559  2.621793
Li  4.739483  4.566963  7.819062
Li  0.008766  1.530123  7.842220
Li  2.382891  1.506718  2.598635
O  3.609234  3.023322  1.604724
O  1.030646  1.784619  0.891860
O  1.031749  4.256592  0.888390
O  0.993462  3.025126  3.066249
O  1.235110  0.013519  8.836131
O  3.404771  1.252221  9.548995
O  3.405874  4.853930  9.552465
O  3.367587  0.011715  7.374606
O  3.513140  3.050360  6.825151
O  1.343478  4.289062  6.112287
O  1.342376  1.817090  6.108817
O  1.380663  3.048555  8.286676
O  1.139015  6.060163  3.615704
O  3.717603  4.821460  4.328568
O  3.716500  1.219751  4.332037
O  3.754787  6.061967  2.154178
P  0.397746  3.020762  1.629696
P  2.771870  0.016078  8.811158
P  1.976379  3.052919  6.850124
P  4.350503  6.057603  3.590731
Fe  4.622892  3.026637  4.892859
Fe  2.248767  0.010204  5.547995
Fe  2.499482  3.047045 10.113287
Fe  0.125358  6.063477  0.327568
%ENDBLOCK POSITIONS_ABS

