#######################################################
#CASTEP cell file: refined-structures/005-2LFP_REF-mp-756958.cell
#Created using the Atomic Simulation Environment (ASE)#
#######################################################

%BLOCK LATTICE_CART
 8.573655  0.000000  0.124505
 0.000000  5.114494  0.000000
-2.672918  0.000000  8.321451
%ENDBLOCK LATTICE_CART

%BLOCK POSITIONS_ABS
Li -1.611882  4.206873  8.247876
Li  0.703759  1.616567  4.146108
Li  2.674945  0.907621  8.310129
Li  4.990587  3.497926  4.208361
O -1.624456  0.903958  7.436947
O -0.875300  1.644245  2.957305
O -0.388864  3.110012  7.133172
O  0.467451  1.015767  5.970635
O  1.205110  3.734567  1.819151
O  1.207172  3.576810  4.307591
O  2.662372  4.210535  7.499199
O  2.150449  0.562200  3.213247
O  3.334765  1.173745  0.136893
O  3.411528  3.470249  3.019558
O  3.897964  2.004482  7.195424
O  4.754278  4.098727  6.032888
O  5.491937  1.379927  1.881403
O  5.494000  1.537684  4.369844
O  6.437277  4.552294  3.275500
O  7.621592  3.940749  0.199146
P -0.232061  1.570714  7.248767
P  2.007231  4.135499  3.089824
P  4.054766  3.543780  7.311019
P  6.294059  0.978995  3.152077
Fe  7.742525  3.450585  2.153207
Fe  1.109478  4.178665  6.222343
Fe  3.455697  1.663908  2.090954
Fe  5.396306  0.935829  6.284596
%ENDBLOCK POSITIONS_ABS

