#######################################################
#CASTEP cell file: refined-structures/006-2LFP-25073-9650-2.cell
#Created using the Atomic Simulation Environment (ASE)#
#######################################################

%BLOCK LATTICE_CART
 5.087476  0.000000  0.000000
 0.000000  6.857823  0.000000
 0.000000  0.000000 10.243459
%ENDBLOCK LATTICE_CART

%BLOCK POSITIONS_ABS
Li  3.569935  6.049984  1.581340
Li  1.517542  2.621073  8.662119
Li  4.061280  6.049984  6.703070
Li  1.026196  2.621073  3.540389
O  3.870460  4.351016  5.652039
O  4.188813  3.058502  3.494635
O  2.017905  4.299621  3.869465
O  4.120156  5.617377  3.464969
O  1.217017  0.922104  4.591420
O  0.898663  6.487414  6.748824
O  3.069571  0.870710  6.373994
O  0.967320  2.188466  6.778490
O  3.760755  4.351016  0.530310
O  3.442401  3.058502  8.616365
O  0.525833  4.299621  8.991194
O  3.511058  5.617377  8.586698
O  1.326722  0.922104  9.713150
O  1.645075  6.487414  1.627094
O  4.561643  0.870710  1.252265
O  1.576418  2.188466  1.656761
P  3.555491  4.328536  4.129709
P  1.531985  0.899625  6.113751
P  4.075723  4.328536  9.251438
P  1.011753  0.899625  0.992021
Fe  4.051094  2.621676  6.683442
Fe  1.036382  6.050588  3.560018
Fe  3.580120  2.621676  1.561712
Fe  1.507356  6.050588  8.681747
%ENDBLOCK POSITIONS_ABS

