#######################################################
#CASTEP cell file: refined-structures/007-2LFP_REF-mp-26041.cell
#Created using the Atomic Simulation Environment (ASE)#
#######################################################

%BLOCK LATTICE_CART
10.233254  0.000000  0.000000
 0.000000  6.865734  0.000000
 0.000000  0.000000  5.080816
%ENDBLOCK LATTICE_CART

%BLOCK POSITIONS_ABS
Li  1.577119  1.461271  3.563335
Li  6.693746  1.461271  4.057889
Li  8.656135  4.894138  1.517481
Li  3.539508  4.894138  1.022927
O  6.364076  6.645499  3.070649
O  6.745416  1.019083  0.900048
O  8.604465  4.451950  3.440456
O  3.487838  4.451950  4.180768
O  0.528948  3.162138  3.751414
O  1.247449  6.645499  4.550576
O  6.773183  5.325777  0.970376
O  5.645575  3.162138  3.869811
O  3.869178  3.212632  2.010168
O  3.460071  1.892910  4.110441
O  1.628789  1.019083  1.640360
O  9.704306  6.595005  1.329402
O  8.985804  3.212632  0.530240
O  1.656556  5.325777  1.570033
O  4.587679  6.595005  1.211006
O  8.576697  1.892910  3.510784
P  4.124843  3.182762  3.548281
P  0.991784  6.615629  1.007872
P  6.108411  6.615629  1.532536
P  9.241470  3.182762  4.072944
Fe  6.675073  4.893851  4.048491
Fe  1.558446  4.893851  3.572734
Fe  3.558180  1.460984  1.032326
Fe  8.674807  1.460984  1.508082
%ENDBLOCK POSITIONS_ABS

