#######################################################
#CASTEP cell file: refined-structures/008-2LFP_REF-mp-504184.cell
#Created using the Atomic Simulation Environment (ASE)#
#######################################################

%BLOCK LATTICE_CART
 5.081743  0.000000  0.008992
 0.000000 10.209062  0.000000
 0.013866  0.000000  6.872143
%ENDBLOCK LATTICE_CART

%BLOCK POSITIONS_ABS
Li  1.041397  1.600796  3.465567
Li  1.520274  6.705327  6.847143
Li  3.575335  3.503735  0.033992
Li  4.054213  8.608266  3.415568
O  0.525126  6.373990  5.180453
O  0.871982  8.548520  2.955555
O  0.956257  8.650038  0.400961
O  1.246579  0.554727  1.787339
O  1.301225  5.659258  1.653229
O  1.591548  3.545507  3.039607
O  1.675823  3.443989  0.485013
O  2.036545  1.269459  5.132258
O  3.059064  8.939603  1.748877
O  3.419786  6.765073  6.396123
O  3.504062  6.663555  3.841528
O  3.794384  4.549804  5.227906
O  3.849030  9.654335  5.093797
O  4.139353  1.559024  6.480175
O  4.223628  1.660542  3.925580
O  4.570484  3.835072  1.700683
P  1.020686  4.130717  1.708867
P  1.527119  9.235248  1.731701
P  3.568491  0.973814  5.149435
P  4.074924  6.078345  5.172268
Fe  1.055791  1.538490  0.026392
Fe  1.492008  6.643021  3.414176
Fe  3.603596  3.566041  3.466959
Fe  4.039813  8.670572  6.854744
%ENDBLOCK POSITIONS_ABS

