#######################################################
#CASTEP cell file: refined-structures/009-LFP-23067-6668-16.cell
#Created using the Atomic Simulation Environment (ASE)#
#######################################################

%BLOCK LATTICE_CART
 5.121338  0.302028  0.000000
-0.232310  5.120969  0.000000
 0.000000  0.000000  6.868362
%ENDBLOCK LATTICE_CART

%BLOCK POSITIONS_ABS
Li  3.942406  3.818197  5.450155
Li  0.946622  1.604800  2.015974
O  3.622855  4.795861  0.272519
O  4.062972  1.871538  5.886331
O  1.957090  1.394996  0.325405
O  4.122529  1.817753  1.579207
O  1.266173  0.627136  3.706700
O  0.826056  3.551459  2.452150
O  2.931938  4.028001  3.759587
O  0.766499  3.605244  5.013388
P  3.505014  1.195587  0.298549
P  1.384014  4.227410  3.732730
Fe  0.974321  1.583339  5.450411
Fe  3.914707  3.839658  2.016229
%ENDBLOCK POSITIONS_ABS

