#######################################################
#CASTEP cell file: refined-structures/010-LFP-9974-9224-23.cell
#Created using the Atomic Simulation Environment (ASE)#
#######################################################

%BLOCK LATTICE_CART
 5.116420  0.111179  0.000000
-0.196525  5.113853  0.000000
 0.000000  0.000000  6.902269
%ENDBLOCK LATTICE_CART

%BLOCK POSITIONS_ABS
Li  3.437772  3.650987  0.000000
Li  1.482123  1.574046  3.451134
O  1.442690  3.522083  3.896091
O  0.501202  1.285818  1.749529
O  3.477204  1.702949  0.444956
O  4.418693  3.939215  5.200664
O  1.490886  3.573268  6.457312
O  3.666524  4.647457  1.701605
O  3.429009  1.651764  3.006178
O  1.253370  0.577575  5.152739
P  0.829902  4.147368  5.176702
P  4.089992  1.077665  1.725567
Fe  1.451309  1.541321  0.000000
Fe  3.468585  3.683711  3.451134
%ENDBLOCK POSITIONS_ABS

