#######################################################
#CASTEP cell file: refined-structures/011-2LFP-28759-3100-3.cell
#Created using the Atomic Simulation Environment (ASE)#
#######################################################

%BLOCK LATTICE_CART
 7.211427  0.000000  0.000000
 0.000000  6.887806  0.000000
 0.000000  0.000000  7.254902
%ENDBLOCK LATTICE_CART

%BLOCK POSITIONS_ABS
Li  3.231803  0.020536  3.603737
Li  6.837517  6.867270  0.023714
Li  0.373910  3.464439  3.651165
Li  3.979624  3.423367  7.231188
O  1.840144  0.454961  4.957368
O  1.762269  3.015652  5.025466
O  0.520180  1.666646  6.755284
O  3.081503  1.718699  6.757041
O  5.445858  6.432844  5.924986
O  5.367983  3.872153  5.856887
O  4.125894  5.221160  4.127070
O  6.687217  5.169107  4.125313
O  1.765569  3.898864  2.297535
O  1.843444  6.459555  2.229436
O  3.085533  5.110549  0.499619
O  0.524210  5.162602  0.497862
O  5.371282  2.988941  1.329916
O  5.449157  0.428250  1.398015
O  6.691247  1.777257  3.127832
O  4.129924  1.725204  3.129589
P  1.801155  1.710170  5.865711
P  5.406869  5.177635  5.016643
P  1.804558  5.154073  1.389192
P  5.410272  1.733732  2.238260
Fe  3.938187  6.870443  0.032234
Fe  0.332474  0.017363  3.595217
Fe  6.878953  3.426540  7.222668
Fe  3.273240  3.461266  3.659685
%ENDBLOCK POSITIONS_ABS

