#######################################################
#CASTEP cell file: refined-structures/012-2LFP-4008-7075-4.cell
#Created using the Atomic Simulation Environment (ASE)#
#######################################################

%BLOCK LATTICE_CART
 5.125874  0.000000  0.000000
 0.000000  8.655486  0.154579
 0.000000 -5.610190  8.031424
%ENDBLOCK LATTICE_CART

%BLOCK POSITIONS_ABS
Li  0.310176  2.125565  0.900220
Li  2.873113 -3.408012  7.208493
Li  4.815699  0.919731  7.285783
Li  2.252761  6.453309  0.977510
O  0.260670  6.756240  1.086006
O  3.264494 -0.768619  1.780488
O  5.094068 -1.666278  3.350195
O  0.344559  0.456586  1.987467
O  2.823607  0.616800  7.177287
O  0.701557 -0.513828  6.328226
O  2.531131  0.383831  4.758519
O  2.907496 -1.739033  6.121247
O  4.865204 -3.710943  7.099997
O  1.861380  3.813915  6.405515
O  0.031807  4.711574  4.835808
O  4.781316  2.588710  6.198536
O  2.302267  2.428496  1.008716
O  4.424318  3.559124  1.857777
O  2.594744  2.661465  3.427484
O  2.218378  4.784329  2.064756
P  4.795803 -0.934378  1.991678
P  2.232865 -0.348069  6.117036
P  0.330072  3.979674  6.194325
P  2.893009  3.393365  2.068968
Fe  2.246695  0.702403  2.723860
Fe  4.809632 -1.984850  5.384854
Fe  2.879180  2.342893  5.462144
Fe  0.316242  5.030146  2.801149
%ENDBLOCK POSITIONS_ABS

