#######################################################
#CASTEP cell file: refined-structures/014-LFP-8864-2791-21.cell
#Created using the Atomic Simulation Environment (ASE)#
#######################################################

%BLOCK LATTICE_CART
 5.101059  0.000000  0.029036
 0.000000  5.156817  0.000000
-0.043634  0.000000  6.854627
%ENDBLOCK LATTICE_CART

%BLOCK POSITIONS_ABS
Li  2.727843  0.978614  5.799681
Li  0.199130  4.178203  2.357849
O  4.653393  0.946344  5.363460
O  1.739778  1.254221  4.108333
O  4.733330  0.926810  2.805963
O  5.066887  3.105143  4.087871
O  2.124681  4.210472  1.921629
O  4.312125  3.902596  0.695537
O  2.160984  4.230007  6.218759
O  2.538175  2.051674  0.646039
P  0.211672  1.569118  4.070664
P  2.784018  3.587699  0.657868
Fe  2.731017  0.981243  2.359034
Fe  0.158670  4.175574  5.771830
%ENDBLOCK POSITIONS_ABS

