#######################################################
#CASTEP cell file: refined-structures/016-LFP-23066-6472-24.cell
#Created using the Atomic Simulation Environment (ASE)#
#######################################################

%BLOCK LATTICE_CART
 5.090665  0.000000  0.034987
 0.000000  5.152165  0.000000
-0.039346  0.000000  6.868459
%ENDBLOCK LATTICE_CART

%BLOCK POSITIONS_ABS
Li  4.492831  3.555135  2.293244
Li  1.927826  1.597030  5.709980
O  3.493050  3.827052  3.979730
O  1.319454  3.517976  2.728618
O  1.367662  3.499556  5.282551
O  1.718693  0.525652  4.006993
O  0.967390  1.325114  0.528007
O  3.845114  1.634189  6.180341
O  3.932668  1.652609  1.865815
O  4.283699  4.626513  0.590257
P  1.964297  4.141193  3.997893
P  4.529303  1.010973  0.581158
Fe  1.925203  1.589694  2.295258
Fe  4.450863  3.562471  5.746981
%ENDBLOCK POSITIONS_ABS

