#######################################################
#CASTEP cell file: refined-structures/017-LFP-11376-1071-12.cell
#Created using the Atomic Simulation Environment (ASE)#
#######################################################

%BLOCK LATTICE_CART
 5.103746  0.000000 -0.013022
 0.000000  5.141908  0.000000
 0.016110  0.000000  6.859639
%ENDBLOCK LATTICE_CART

%BLOCK POSITIONS_ABS
Li  4.069812  4.163514  6.020247
Li  1.509884  0.978394  2.596939
O  3.508060  0.927054  5.592694
O  3.846050  3.107167  4.314553
O  0.517003  1.258178  4.280312
O  3.435071  0.949929  3.036055
O  0.948131  4.214854  2.169385
O  1.286121  2.034742  0.891245
O  3.060821  3.883730  0.843982
O  0.891253  4.191979  6.472385
P  4.090869  1.570531  4.301683
P  1.530941  3.571377  0.878374
Fe  4.046360  4.165487  2.594568
Fe  1.502542  0.976422  6.030898
%ENDBLOCK POSITIONS_ABS

