#######################################################
#CASTEP cell file: refined-structures/018-LFP-30709-5623-7.cell
#Created using the Atomic Simulation Environment (ASE)#
#######################################################

%BLOCK LATTICE_CART
 5.156067  0.000000  0.000000
 0.000000  5.091698  0.175514
 0.000000 -0.241749  6.857183
%ENDBLOCK LATTICE_CART

%BLOCK POSITIONS_ABS
Li  1.596938  3.363432  1.883551
Li  3.559129  0.696709  5.224386
O  1.637443  0.208657  1.323990
O  1.656551  0.115410  5.629165
O  4.632077  0.652158  0.060545
O  1.319629  2.428856  0.158968
O  3.518624  2.633631  4.840339
O  3.499516  2.782133  2.288331
O  0.523990  3.077133  3.576894
O  3.836438  4.853830  3.675317
P  1.012239  0.900117  0.079713
P  4.143828  3.325092  3.596062
Fe  3.566533  0.795508  1.777341
Fe  1.589534  3.220482  5.293690
%ENDBLOCK POSITIONS_ABS

