#######################################################
#CASTEP cell file: refined-structures/021-LFP-790-1200-36.cell
#Created using the Atomic Simulation Environment (ASE)#
#######################################################

%BLOCK LATTICE_CART
 5.098944 -0.000002 -0.001237
-0.000002  5.149908  0.000068
-0.001415  0.000090  6.841310
%ENDBLOCK LATTICE_CART

%BLOCK POSITIONS_ABS
Li  3.112080  1.600046  6.286818
Li  0.563313  3.549976  2.866807
O  1.123950  1.651398  2.445116
O  4.108039  1.321899  1.125031
O  1.190163  1.628119  6.733966
O  0.778253  4.620562  1.171060
O  3.672711  3.498624  5.865138
O  1.557867  3.828088  4.546301
O  3.740364  3.521908  3.312656
O  3.327030  0.529436  4.591003
P  0.536720  1.006822  1.157571
P  3.085468  4.143139  4.577733
Fe  3.127774  1.595727  2.878952
Fe  0.577596  3.554312  6.300266
%ENDBLOCK POSITIONS_ABS

