#######################################################
#CASTEP cell file: refined-structures/023-LFP-31224-5858-2.cell
#Created using the Atomic Simulation Environment (ASE)#
#######################################################

%BLOCK LATTICE_CART
 5.066802  0.000000 -0.026860
 0.000000  5.142320  0.000000
 0.057362  0.000000  6.881397
%ENDBLOCK LATTICE_CART

%BLOCK POSITIONS_ABS
Li  4.609825  1.591869  1.983435
Li  2.105106  3.550452  5.437564
O  3.648411  1.302263  3.679869
O  1.464891  1.624795  2.453488
O  1.864232  4.608856  3.734747
O  1.544791  1.648993  5.012536
O  1.086329  3.840058  0.252600
O  4.026973  3.517526  5.880756
O  4.368952  0.533465  0.280618
O  4.049511  3.493327  1.558407
P  2.117423  1.002228  3.719157
P  4.622142  4.140092  0.265028
Fe  4.607793  1.581768  5.441085
Fe  2.045711  3.560552  2.013816
%ENDBLOCK POSITIONS_ABS

