#######################################################
#CASTEP cell file: refined-structures/024-2LFP-4008-7075-8.cell
#Created using the Atomic Simulation Environment (ASE)#
#######################################################

%BLOCK LATTICE_CART
 5.025530  0.079730  0.000000
-2.973975  8.251951  0.000000
 0.000000  0.000000  8.654014
%ENDBLOCK LATTICE_CART

%BLOCK POSITIONS_ABS
Li  3.327580  0.666067  2.329205
Li  0.210963  3.539638  6.656212
Li -1.276025  7.665614  6.324809
Li  1.840593  4.792042  1.997802
O  3.525252  3.496481  5.642611
O  3.301941  1.835149  3.804958
O  2.675082  1.113473  6.182640
O  1.222283  2.815793  4.990653
O  0.013290  0.709224  1.315604
O  0.236601  2.370556  8.131965
O  0.863460  3.092232  1.855633
O  2.316260  1.389912  0.663646
O -1.473697  4.835199  3.011403
O -1.250386  6.496531  4.849056
O -0.623527  7.218208  2.471374
O  0.829273  5.515887  3.663361
O  2.038265  7.622457  7.338410
O  1.814954  5.961125  0.522049
O  1.188095  5.239448  6.798381
O -0.264705  6.941769  7.990368
P  2.671176  2.257766  5.155481
P  0.867367  1.947939  0.828474
P -0.619621  6.073915  3.498533
P  1.184188  6.383741  7.825540
Fe  2.278180  5.113082  5.051899
Fe -1.713612  7.344574  0.724892
Fe -0.226625  3.218598  3.602115
Fe  3.765168  0.987107  7.929122
%ENDBLOCK POSITIONS_ABS

