#######################################################
#CASTEP cell file: refined-structures/025-LFP-19058-5519-23.cell
#Created using the Atomic Simulation Environment (ASE)#
#######################################################

%BLOCK LATTICE_CART
 5.002754 -0.060188 -0.024044
 2.485280  4.342183 -0.024044
 2.280199  1.303921  8.133181
%ENDBLOCK LATTICE_CART

%BLOCK POSITIONS_ABS
Li  5.336810  1.228571  5.168200
Li  2.625322  3.324536  1.101609
O  6.934200  2.927083  2.888861
O  6.830858  2.561621  5.371388
O  3.688894  1.508279  4.006482
O  3.721634  4.002046  4.427298
O  7.179515  5.143776  6.955452
O  4.531930  3.936134  1.304798
O  4.310848  3.066334  8.073073
O  4.196523  0.525913  0.360707
P  2.800110  2.769637  4.186498
P  2.667011  0.356709  0.119907
Fe  5.329547  4.161892  3.174102
Fe  7.429942  3.134560  7.240692
%ENDBLOCK POSITIONS_ABS

