#######################################################
#CASTEP cell file: refined-structures/027-LFP-507-7040-11.cell
#Created using the Atomic Simulation Environment (ASE)#
#######################################################

%BLOCK LATTICE_CART
 5.006049 -0.079061  0.056862
 2.511288  4.331306  0.056862
 5.196314  2.939339  8.224587
%ENDBLOCK LATTICE_CART

%BLOCK POSITIONS_ABS
Li  5.410416  3.432246  4.389454
Li  3.130920  1.399232  0.277161
O  4.520331  5.075583  3.655473
O  3.812115  1.746015  2.091845
O  7.066892  3.157827  3.237740
O  3.910911  2.108100  4.574245
O  9.277141  2.729073  7.767766
O  6.058578  3.837426  6.204138
O  8.945429  5.899677  7.350033
O  1.223499  0.796222  0.461952
P  2.940758  1.970121  3.362598
P  5.801744  2.975148  7.474892
Fe 10.836729  5.769211  6.556279
Fe  7.929445  4.846033  2.443986
%ENDBLOCK POSITIONS_ABS

