#######################################################
#CASTEP cell file: refined-structures/028-2LFP_REF-mp-772210.cell
#Created using the Atomic Simulation Environment (ASE)#
#######################################################

%BLOCK LATTICE_CART
 5.000777 -0.027124 -0.079371
-0.156945  8.707897  0.028093
 2.498756 -1.566236  4.046415
%ENDBLOCK LATTICE_CART

%BLOCK POSITIONS_ABS
Li  5.041162  2.916709  3.762836
Li  4.820192 -0.085729  0.183173
O  1.473472  1.114932  0.410188
O  3.926914  0.034811  1.974824
O  5.724610  1.095398  3.449446
O  3.134593  2.948723  3.120561
O  3.156491  5.016669  1.584673
O  5.990661  4.171679  2.522108
O  0.288405  6.803255  0.045360
O  5.668059  7.350843  2.943020
P  4.854775 -0.172778  3.208868
P  2.521256  4.353199  2.837995
Fe  2.329154  1.275242  2.268918
Fe  5.040573  5.810356  1.751957
%ENDBLOCK POSITIONS_ABS

