#######################################################
#CASTEP cell file: refined-structures/031-LFP-3746-385-1.cell
#Created using the Atomic Simulation Environment (ASE)#
#######################################################

%BLOCK LATTICE_CART
 5.625950  0.000000  0.000000
 0.000000  8.368218  0.000000
 0.000000  0.000000  6.208191
%ENDBLOCK LATTICE_CART

%BLOCK POSITIONS_ABS
Li  5.625951  7.005520  4.656143
Li  2.812975  5.546807  1.552048
O  2.812975  6.308134  5.927405
O  4.062272  4.478433  4.656143
O  2.812975  6.308134  3.384881
O  4.376654  0.294324  4.656143
O  5.625951  6.244192  0.280786
O  4.376655  8.073893  1.552048
O  5.625951  6.244192  2.823310
O  4.062272  3.889785  1.552048
P  2.812975  5.437447  4.656143
P  5.625950  7.114880  1.552048
Fe  2.812975  0.000000  6.208191
Fe  2.812975  0.000000  3.104096
Li  2.812975  2.821411  4.656143
Li  0.000000  1.362698  1.552048
O  0.000000  2.124025  5.927405
O  1.249296  0.294324  4.656143
O  0.000000  2.124025  3.384881
O  1.563679  4.478433  4.656143
O  2.812975  2.060084  0.280786
O  1.563679  3.889785  1.552048
O  2.812975  2.060084  2.823310
O  1.249297  8.073893  1.552048
P  0.000001  1.253338  4.656143
P  2.812975  2.930770  1.552048
Fe  0.000000  4.184109  6.208191
Fe  0.000000  4.184109  3.104096
%ENDBLOCK POSITIONS_ABS

