#######################################################
#CASTEP cell file: refined-structures/032-LFP-23066-6472-15.cell
#Created using the Atomic Simulation Environment (ASE)#
#######################################################

%BLOCK LATTICE_CART
 5.038791  0.050627  0.036239
-1.945600  4.648292  0.036239
-0.051205 -0.077786  6.213203
%ENDBLOCK LATTICE_CART

%BLOCK POSITIONS_ABS
Li  1.341504  0.717072  4.678022
Li  1.700482  3.904060  1.607659
O  0.723815  1.155809  2.843218
O  2.949124  1.209679  1.589245
O  0.745512  1.188769  0.299623
O -0.369787  3.771751  1.589835
O  2.318171  3.465324  3.442463
O  0.092862  3.411453  4.696436
O  2.296474  3.432364  5.986059
O  3.411773  0.849382  4.695846
P  1.461563  0.693787  1.571420
P  1.580423  3.927345  4.714261
Fe -0.972800  2.324146  0.018119
Fe -0.998402  2.285253  3.124721
%ENDBLOCK POSITIONS_ABS

