#######################################################
#CASTEP cell file: refined-structures/033-LFP-19057-5684-19.cell
#Created using the Atomic Simulation Environment (ASE)#
#######################################################

%BLOCK LATTICE_CART
 5.045538  0.000765  0.000000
-1.909409  4.662523  0.000000
 0.000000  0.000000  6.217311
%ENDBLOCK LATTICE_CART

%BLOCK POSITIONS_ABS
Li  1.738069  3.886992  4.842192
Li  1.398059  0.776296  1.733537
O  0.758140  1.186020  3.568871
O -0.334843  3.790705  4.841455
O  2.971012  1.198409  4.841538
O  0.758257  1.185746  6.115157
O  2.377989  3.477268  0.460216
O  3.470971  0.872583  1.732799
O  0.165116  3.464879  1.732883
O  2.377871  3.477542  3.006502
P  1.478207  0.699619  4.841943
P  1.657922  3.963669  1.733288
Fe  4.090414  2.331875  0.176857
Fe -0.954285  2.331413  3.285512
%ENDBLOCK POSITIONS_ABS

