#######################################################
#CASTEP cell file: refined-structures/034-LFP-31963-9153-6.cell
#Created using the Atomic Simulation Environment (ASE)#
#######################################################

%BLOCK LATTICE_CART
 5.047032  0.023805  0.000000
-1.934168  4.661298  0.000000
 0.000000  0.000000  6.204055
%ENDBLOCK LATTICE_CART

%BLOCK POSITIONS_ABS
Li  0.426518  3.093758  2.738033
Li  2.686345  1.591345  5.840060
O -0.217896  3.521589  0.909272
O  1.998535  3.546755  5.842291
O  0.616479  1.468536  5.842292
O -0.217056  3.521029  4.569690
O  3.330760  1.163514  4.011300
O  1.114328  1.138348  2.740263
O  2.496384  3.216568  2.740265
O  3.329919  1.164074  1.467662
P  0.507235  3.039117  5.841701
P  2.605628  1.645987  2.739673
Fe  5.046127  0.024401  1.188438
Fe -1.933264  4.660702  4.290466
%ENDBLOCK POSITIONS_ABS

