#######################################################
#CASTEP cell file: refined-structures/037-LFP-31964-9397-1.cell
#Created using the Atomic Simulation Environment (ASE)#
#######################################################

%BLOCK LATTICE_CART
 5.623054  0.033310  0.000000
-2.847274  4.169588  0.000000
 0.000000  0.000000  6.207582
%ENDBLOCK LATTICE_CART

%BLOCK POSITIONS_ABS
Li -0.048393  2.826296  3.187964
Li  2.824172  1.376601  0.084173
O -0.019166  2.059303  5.020340
O -1.272430  3.884919  0.084890
O -0.019508  2.059222  1.356854
O  1.223210  3.892930  0.084884
O  2.794945  2.143595  1.916548
O  4.048209  0.317978  3.188681
O  2.795287  2.143675  4.460645
O  1.552569  0.309967  3.188675
P -0.021745  2.929194  0.084828
P  2.797525  1.273704  3.188619
Fe  2.775709  4.202692  1.636694
Fe  0.000070  0.000206  4.740485
%ENDBLOCK POSITIONS_ABS

