#######################################################
#CASTEP cell file: refined-structures/038-2LFP-31118-9894-1.cell
#Created using the Atomic Simulation Environment (ASE)#
#######################################################

%BLOCK LATTICE_CART
 5.037448 -0.003974 -0.007516
 0.006823  6.210011 -0.002649
 1.250518  0.006613  9.342392
%ENDBLOCK LATTICE_CART

%BLOCK POSITIONS_ABS
Li  2.015474  1.558173  5.426419
Li  4.279315  4.654476  3.905808
Li  2.388560  4.654374  8.578372
Li  3.906229  1.558276  0.753855
O  2.207454  4.656727  3.795523
O  3.602482  4.662738  5.868971
O  1.390214  5.936304  5.849142
O  1.389631  3.390985  5.856408
O  4.087335  1.555922  5.536705
O  2.692307  1.549911  3.463257
O  4.904575  0.276345  3.483085
O  4.905158  2.821664  3.475819
O  3.016052  2.822539  8.154568
O  3.006675  0.276714  8.154876
O  0.944738  1.549135  0.870712
O  5.835083  1.554318  8.132437
O  3.278737  3.390110  1.177659
O  3.288114  5.935935  1.177351
O  5.350051  4.663514  8.461516
O  0.459706  4.658331  1.199791
P  2.110431  4.662520  5.367476
P  4.184358  1.550129  3.964752
P  2.290461  1.551981  8.641399
P  4.004328  4.660668  0.690828
Fe  4.716780  3.108778  6.997740
Fe  1.578009  3.103872  2.334487
Fe  1.579578  6.207130  2.331308
Fe  4.715211  0.005519  7.000919
%ENDBLOCK POSITIONS_ABS

