#######################################################
#CASTEP cell file: refined-structures/040-LFP-9974-9224-3.cell
#Created using the Atomic Simulation Environment (ASE)#
#######################################################

%BLOCK LATTICE_CART
 5.038023  0.000000  0.015090
 0.000000  6.203211  0.000000
-1.915708  0.000000  4.668319
%ENDBLOCK LATTICE_CART

%BLOCK POSITIONS_ABS
Li -0.770051  1.136750  3.928005
Li  3.892366  4.238356  0.755403
O -0.149420  5.509915  3.489360
O  2.673524  4.239771  3.476744
O -0.149740  2.966180  3.489950
O  0.932130  4.238647  0.873189
O  3.271736  2.408309  1.194048
O  0.448792  1.138165  1.206664
O  3.272056  6.067785  1.193458
O  2.190186  1.137041  3.810220
P -0.874160  4.238196  3.971250
P  3.996475  1.136591  0.712158
Fe  1.561051  5.788637  2.339445
Fe  1.561265  2.687031  2.343964
%ENDBLOCK POSITIONS_ABS

