#######################################################
#CASTEP cell file: refined-structures/041-2LFP-31117-9610-1.cell
#Created using the Atomic Simulation Environment (ASE)#
#######################################################

%BLOCK LATTICE_CART
 5.156223  0.000000  0.000000
 0.000000  6.789529  0.000000
 0.000000  0.000000 10.411114
%ENDBLOCK LATTICE_CART

%BLOCK POSITIONS_ABS
Li  1.004532  1.672153  8.864606
Li  3.582644  1.722612  1.546509
Li  1.573580  5.117376  3.659048
Li  4.151691  5.066917  6.752066
O  3.776821  3.415120  0.517027
O  4.220163  2.110216  8.816548
O  2.023198  3.353060  9.065725
O  4.156251  4.662165  8.735083
O  1.198709  6.769173  9.894088
O  1.642052  1.284548  1.594566
O  4.601310  0.041704  1.345389
O  1.578140  5.522128  1.676031
O  3.957514  3.374408  5.722584
O  3.514172  4.679312  3.610991
O  0.554914  3.436468  3.860168
O  3.578084  2.127363  3.529526
O  1.379402  0.020356  4.688530
O  0.936060  5.504981  6.800123
O  3.133025  6.747825  6.550946
O  0.999972  1.267401  6.881588
P  3.551257  3.384673  9.383872
P  0.973145  0.010092  1.027242
P  4.183078  3.404856  4.178315
P  1.604966  6.779437  6.232799
Fe  3.615897  5.096906  1.594613
Fe  1.037785  5.087387  8.816501
Fe  4.118438  1.692623  6.800170
Fe  1.540326  1.702142  3.610944
%ENDBLOCK POSITIONS_ABS

