#######################################################
#CASTEP cell file: refined-structures/042-LFP-23100-4980-40.cell
#Created using the Atomic Simulation Environment (ASE)#
#######################################################

%BLOCK LATTICE_CART
 5.009704 -0.036283 -0.017343
 2.459192  4.364725 -0.017343
 2.105797  1.220371  8.090027
%ENDBLOCK LATTICE_CART

%BLOCK POSITIONS_ABS
Li  3.106913  0.722449  1.271419
Li  3.224397  2.946729  5.316433
O  4.951955  0.633408  2.031039
O  4.572932  3.841851  2.500423
O  2.415731  2.936193  3.497692
O  2.798506  2.719983  1.028764
O  4.064439  4.591854  6.076053
O  6.659817  2.667854  6.545436
O  4.801524  1.246417  7.542705
O  4.804233  1.686025  5.073778
P  3.051466  3.638378  2.257996
P  5.726846  1.448909  6.303009
Fe  5.689757  4.343140  7.273060
Fe  5.544216  2.167274  3.228046
%ENDBLOCK POSITIONS_ABS

