#######################################################
#CASTEP cell file: refined-structures/043-LFP-23100-4980-8.cell
#Created using the Atomic Simulation Environment (ASE)#
#######################################################

%BLOCK LATTICE_CART
 5.006057  0.002225 -0.008402
 2.417853  4.383446 -0.008402
 2.072130  1.224110  8.097079
%ENDBLOCK LATTICE_CART

%BLOCK POSITIONS_ABS
Li  5.479245  2.846219  7.352889
Li  5.395141  0.622718  3.304350
O  8.612819  5.026484  5.117422
O  6.462493  4.097764  6.107092
O  3.636849  2.923304  6.590538
O  8.221575  5.234548  7.586145
O  3.810905  2.312824  1.077284
O  1.959753  0.877672  2.066954
O  6.991375  3.355313  2.533598
O  3.804323  1.869745  3.546007
P  7.981157  4.315680  6.354135
P  2.883515  2.102618  2.313998
Fe  5.369203  3.596495  1.333102
Fe  3.065233  1.386143  5.390043
%ENDBLOCK POSITIONS_ABS

