#######################################################
#CASTEP cell file: refined-structures/044-LFP-24966-1635-11.cell
#Created using the Atomic Simulation Environment (ASE)#
#######################################################

%BLOCK LATTICE_CART
 5.062221 -0.180251  0.067125
 2.826955  4.203201  0.067125
 4.749713  2.422034  8.552585
%ENDBLOCK LATTICE_CART

%BLOCK POSITIONS_ABS
Li  5.799533  3.775491  4.623720
Li  2.969226  3.457630  0.347427
O  7.786758  3.192617  4.831938
O  8.034964  3.194223  2.363045
O  4.788694  2.293688  3.744060
O  2.534687  1.163724  3.474476
O  5.899737  1.024932  0.555646
O  5.734291  3.827172  6.572213
O 10.988167  5.751450  8.087478
O  8.749885  4.590650  7.817893
P  3.259618  2.534048  3.571163
P 10.284746  4.372667  7.914581
Fe  5.783939  0.981675  2.566043
Fe  7.683742  3.124293  6.842336
%ENDBLOCK POSITIONS_ABS

