#######################################################
#CASTEP cell file: refined-structures/046-LFP-23101-3759-23.cell
#Created using the Atomic Simulation Environment (ASE)#
#######################################################

%BLOCK LATTICE_CART
 4.965426  0.029443  0.000000
-0.100273  4.933375  0.000000
 0.000000  0.000000  7.251084
%ENDBLOCK LATTICE_CART

%BLOCK POSITIONS_ABS
Li  1.216253  1.240623  4.953333
Li  3.648899  3.722195  1.327791
O  2.070391  2.804112  5.880611
O  2.073458  4.612482  0.402472
O  0.261802  4.610476  5.880460
O  0.258919  2.802560  0.402806
O  2.794761  2.158706  2.255069
O  2.791695  0.350337  4.028014
O  4.603350  0.352343  2.254918
O  4.606233  2.160258  4.028348
P  1.166136  3.707411  6.769277
P  3.699016  1.255407  3.143735
Fe  1.216386  1.240785  1.325163
Fe  3.648766  3.722033  4.950705
%ENDBLOCK POSITIONS_ABS

