#######################################################
#CASTEP cell file: refined-structures/050-2LFP-6808-1499-4.cell
#Created using the Atomic Simulation Environment (ASE)#
#######################################################

%BLOCK LATTICE_CART
 5.036615  0.000000  0.000000
 0.000000  8.502064  0.000000
 0.000000  0.000000  7.954052
%ENDBLOCK LATTICE_CART

%BLOCK POSITIONS_ABS
Li  0.381157  8.488214  6.646251
Li  2.899464  0.013850  5.284827
Li  2.137151  4.237182  1.307801
Li  4.655458  4.264882  2.669225
O  0.813084  7.839965  2.582663
O  4.838100  5.823138  3.789051
O  1.952401  6.896776  4.667149
O  4.804794  8.184938  4.784680
O  3.331392  0.662099  1.394363
O  2.319793  2.678927  0.187975
O  4.470708  1.605288  7.263929
O  2.286487  0.317127  7.146398
O  1.705223  3.588933  5.371389
O  2.716822  1.572106  4.165001
O  0.565907  2.645744  3.286903
O  2.750128  3.933905  3.169372
O  4.223530  4.913131  6.559689
O  0.198514  6.929959  7.766077
O  3.084214  5.856320  0.690123
O  0.231820  4.568159  0.807654
P  0.588992  7.130202  3.958957
P  3.107299  1.371862  0.018069
P  1.929316  2.879170  3.995095
P  4.447623  5.622894  7.935983
Fe  0.597936  3.244071  7.041071
Fe  3.116243  5.257993  4.890007
Fe  1.920372  7.495104  0.912981
Fe  4.438679  1.006961  3.064045
%ENDBLOCK POSITIONS_ABS

