#######################################################
#CASTEP cell file: refined-structures/052-2LFP-17165-7777-8.cell
#Created using the Atomic Simulation Environment (ASE)#
#######################################################

%BLOCK LATTICE_CART
 4.972999  0.000000  0.000000
 0.000000  8.351435  0.000000
 0.000000  0.000000  8.242029
%ENDBLOCK LATTICE_CART

%BLOCK POSITIONS_ABS
Li  2.083045  4.160357  1.275961
Li  2.889955  0.015361  5.396975
Li  4.569544  4.191078  2.845053
Li  0.403455  8.336075  6.966068
O  1.979328  6.722166  4.749616
O  4.743681  5.627324  4.091819
O  4.754834  7.904344  5.215389
O  0.592924  7.707868  2.852118
O  2.993672  5.804987  0.628601
O  0.229318  6.899829  8.212834
O  0.218166  4.622809  1.094375
O  4.380075  4.819285  6.973132
O  4.465827  1.629269  7.613427
O  2.257181  2.724111  0.029195
O  2.268334  0.447091  7.147653
O  3.079424  0.643567  1.268896
O  0.507172  2.546448  3.492413
O  2.715818  1.451607  4.150209
O  2.704665  3.728626  3.026639
O  1.893575  3.532150  5.389910
P  0.530947  6.964022  4.258887
P  4.442052  5.563131  0.137873
P  3.017447  1.387413  8.104155
P  1.955552  2.788304  3.983141
Fe  0.692342  3.154061  7.028973
Fe  4.280657  1.021657  2.907959
Fe  3.178842  5.197375  5.334069
Fe  1.794157  7.329778  1.213055
%ENDBLOCK POSITIONS_ABS

