#######################################################
#CASTEP cell file: refined-structures/053-2LFP-19939-2839-2.cell
#Created using the Atomic Simulation Environment (ASE)#
#######################################################

%BLOCK LATTICE_CART
 5.035087 -0.050158  0.226317
 0.345178  8.799943 -0.228225
-0.773978  3.186090  7.957581
%ENDBLOCK LATTICE_CART

%BLOCK POSITIONS_ABS
Li -0.018770 10.646929  6.618442
Li  4.625057  1.288946  1.337231
Li  2.001120  6.431586  7.264577
Li  2.605168  5.504289  0.691095
O  1.382058  3.436469  3.447415
O  1.901922  3.703021  1.004664
O  3.589354  2.541779  2.551699
O  1.426955  1.381978  1.923598
O  3.224229  8.499406  4.508257
O  2.704366  8.232854  6.951008
O  1.016933  9.394096  5.403973
O  3.179333 10.553897  6.032074
O  4.243960  8.280119  1.522402
O  4.157703  5.826599  2.055143
O  1.143385  6.867319  0.520237
O  0.863973  7.334890  2.967011
O  0.362327  3.655756  6.433271
O  0.448584  6.109276  5.900530
O  3.462902  5.068556  7.435435
O  3.742315  4.600985  4.988661
P  2.091203  2.760547  2.190958
P  2.515084  9.175328  5.764714
P  0.086891  7.084867  1.602506
P  4.519396  4.851008  6.353166
Fe -0.018642  7.720928  4.821096
Fe  4.624930  4.214947  3.134576
Fe  2.085857  3.435931  5.393973
Fe  2.520430  8.499944  2.561699
%ENDBLOCK POSITIONS_ABS

