#######################################################
#CASTEP cell file: refined-structures/054-LFP-19058-5519-19.cell
#Created using the Atomic Simulation Environment (ASE)#
#######################################################

%BLOCK LATTICE_CART
 5.043078 -0.000000 -0.000000
-2.521544  4.392120  0.054527
-0.000000 -2.580684  8.054878
%ENDBLOCK LATTICE_CART

%BLOCK POSITIONS_ABS
Li  1.747017  3.489758  1.024104
Li  4.268560 -1.678322  7.085300
O -0.127369  3.443652  1.805108
O -0.331794  1.057400  0.924694
O -0.156886  1.425875  3.365666
O  2.754193  2.205317  2.178106
O  2.394174 -1.632216  6.304296
O  2.189743  0.754037  7.184710
O  2.364649  0.385561  4.743739
O  0.232661 -0.393880  5.931299
P -0.755949  2.033296  2.027590
P  1.765591 -0.221860  6.081815
Fe -0.895551  1.239324  5.304592
Fe  1.625990  0.572113  2.804813
%ENDBLOCK POSITIONS_ABS

