#######################################################
#CASTEP cell file: refined-structures/055-2LFP-6321-192-5.cell
#Created using the Atomic Simulation Environment (ASE)#
#######################################################

%BLOCK LATTICE_CART
 7.192183 -0.152432 -0.030809
 0.014880  7.193783 -0.030809
 3.655095  3.571053  6.911135
%ENDBLOCK LATTICE_CART

%BLOCK POSITIONS_ABS
Li  8.376391  3.297251  5.485844
Li  5.252276  2.838806  2.030277
Li  5.398903  2.981413  5.357289
Li  4.882156  7.063252  1.870913
O  4.682754  3.821368  0.342933
O  3.471808  5.729481  1.494183
O  7.035782  9.090484  5.841026
O  2.133997  3.897295  0.358518
O  2.153259  2.857463  3.829309
O  4.047573  8.796249  4.949750
O  3.820580  1.516256  2.416268
O  2.184768  7.501413  3.814085
O  7.046368  1.878684  1.559845
O  1.114334  0.321426  0.189011
O  5.723769  0.275101  0.154864
O  3.555264  5.795288  5.952779
O  7.458255  5.113187  5.015413
O  5.778335  6.412758  3.613770
O  5.824345  3.828242  3.610432
O  7.652391  5.154668  2.466403
P  3.459679  4.779260  0.275343
P  3.097327  8.806224  3.730910
P  7.030390  1.064357  0.225151
P  6.643777  5.116153  3.680719
Fe  1.782199  6.829179  1.921961
Fe  5.107677  7.081522  5.377528
Fe  1.229300  3.429349  2.123522
Fe  8.888091  6.455412  5.548281
%ENDBLOCK POSITIONS_ABS

