#######################################################
#CASTEP cell file: refined-structures/060-LFP-23100-4980-9.cell
#Created using the Atomic Simulation Environment (ASE)#
#######################################################

%BLOCK LATTICE_CART
 4.960539  0.000000  0.000000
 0.000000  4.957242 -0.038026
 0.000000 -4.901250  7.274990
%ENDBLOCK LATTICE_CART

%BLOCK POSITIONS_ABS
Li  3.544474  2.493808  1.786359
Li  3.544474 -2.437816  5.450605
O  0.149919  1.591829  0.876782
O  2.648200  0.934966  2.724418
O  1.977538  3.379892  0.863092
O  4.439440  0.949185  4.498195
O  0.149919 -1.535836  6.360181
O  2.648200 -0.878974  4.512546
O  1.977538 -3.323899  6.373872
O  4.439440 -0.893192  2.738768
P  3.543787  0.027996  3.618482
P  1.063846  2.478621 -0.019013
Fe  1.062847  0.041829  5.424728
Fe  1.062847  0.014164  1.812236
%ENDBLOCK POSITIONS_ABS

