#######################################################
#CASTEP cell file: refined-structures/061-LFP-11376-1071-3.cell
#Created using the Atomic Simulation Environment (ASE)#
#######################################################

%BLOCK LATTICE_CART
 4.978259  0.000000  0.026121
 0.000000  4.970273  0.000000
-0.031233  0.000000  7.191303
%ENDBLOCK LATTICE_CART

%BLOCK POSITIONS_ABS
Li  2.466754  0.580751  5.412362
Li  2.480272  0.580751  1.805063
O  0.908657  1.474166  0.892986
O  1.573819  2.149887  4.492309
O  4.058880  4.654421  0.907870
O  1.582577  3.977134  2.716871
O  4.038369  1.474166  6.324439
O  3.373208  2.149887  2.725116
O  0.888146  4.654421  6.309555
O  3.364449  3.977134  4.500554
P  0.000000  0.578906  0.000000
P  2.473513  3.063063  3.608712
Fe  4.970217  3.064959  1.827767
Fe -0.023191  3.064959  5.389657
%ENDBLOCK POSITIONS_ABS

