#######################################################
#CASTEP cell file: refined-structures/063-LFP-21280-8754-24.cell
#Created using the Atomic Simulation Environment (ASE)#
#######################################################

%BLOCK LATTICE_CART
 5.047594 -0.052410  0.002349
 2.537652  4.363631  0.002349
 2.922844  1.661255  8.078798
%ENDBLOCK LATTICE_CART

%BLOCK POSITIONS_ABS
Li  6.360360  1.974827  0.873659
Li  5.556969  1.518204  7.209837
O  6.646348  2.870337  6.142395
O  3.730605  1.603926  6.410525
O  3.651009  3.505804  4.706734
O  8.791568  3.999329  7.091914
O  4.641231  1.730690  1.941100
O  7.221197  3.587872  1.672971
O  5.627860  4.629386  3.376762
O  2.573582  0.465217  0.991581
P  8.189250  2.960406  6.107599
P  3.774394  0.451137  1.975897
Fe  3.928362  3.539864  2.656834
Fe  5.456685  4.408515  5.426662
%ENDBLOCK POSITIONS_ABS

