#######################################################
#CASTEP cell file: refined-structures/068-LFP-1369-7850-41.cell
#Created using the Atomic Simulation Environment (ASE)#
#######################################################

%BLOCK LATTICE_CART
 5.075845  0.049052  0.144677
-2.420333  4.345088 -0.516638
-0.971572 -2.176664  8.265493
%ENDBLOCK LATTICE_CART

%BLOCK POSITIONS_ABS
Li  2.365402 -0.929921  7.345607
Li -0.681462  3.147396  0.547925
O  2.387936  1.637666  3.306501
O  0.991637  3.033642  1.655095
O  3.084545  1.657439  0.968836
O  0.886180  0.515558  1.582733
O -0.703996  0.579809  4.587030
O  0.692303 -0.816167  6.238437
O -1.400605  0.560036  6.924695
O  0.797760  1.701917  6.310798
P  1.811422  1.738520  1.858180
P -0.127482  0.478955  6.035351
Fe  2.574328  1.719725  5.341182
Fe -0.890388  0.497750  2.552349
%ENDBLOCK POSITIONS_ABS

