#######################################################
#CASTEP cell file: refined-structures/069-LFP-790-1200-47.cell
#Created using the Atomic Simulation Environment (ASE)#
#######################################################

%BLOCK LATTICE_CART
 4.959376 -0.211791  0.598242
-2.313327  4.556833 -0.408102
-1.441460 -6.207387  8.105804
%ENDBLOCK LATTICE_CART

%BLOCK POSITIONS_ABS
Li  0.797030  3.137166  0.909724
Li  0.407559 -4.999511  7.386219
O -0.194554 -3.070420  7.120067
O  2.086943 -2.019042  6.459313
O  0.195768 -2.498791  4.780550
O -0.001343 -0.608766  6.480824
O  1.399143  1.208075  1.175876
O -0.882355  0.156697  1.836630
O  1.008821  0.636446  3.515394
O  1.205932 -1.253579  1.815120
P  0.557342 -2.040804  6.230383
P  0.647247  0.178459  2.065560
Fe -2.068707  1.788083  2.341692
Fe  3.273295 -3.650429  5.954252
%ENDBLOCK POSITIONS_ABS

