#######################################################
#CASTEP cell file: refined-structures/070-LFP-9973-9033-37.cell
#Created using the Atomic Simulation Environment (ASE)#
#######################################################

%BLOCK LATTICE_CART
 4.952609  0.305146 -0.592723
-2.701134  4.301251  0.114955
-1.207029 -1.867805  8.319973
%ENDBLOCK LATTICE_CART

%BLOCK POSITIONS_ABS
Li  0.541113  0.987246  0.784526
Li  0.503333  1.751347  7.057679
O -2.350120  2.793944  3.560006
O  2.449310  1.205837  1.268555
O  2.214678  3.663665  0.623488
O -0.441750  2.349978  1.885992
O  3.394566 -0.055351  4.282199
O -1.404865  1.532755  6.573650
O -1.170232 -0.925072  7.218718
O  1.486196  0.388615  5.956214
P -1.972073  2.343459  2.112075
P  3.016519  0.395134  5.730130
Fe  3.407361 -0.285062  2.249323
Fe -2.362915  3.023655  5.592882
%ENDBLOCK POSITIONS_ABS

