#######################################################
#CASTEP cell file: refined-structures/073-2LFP-1940-7841-1.cell
#Created using the Atomic Simulation Environment (ASE)#
#######################################################

%BLOCK LATTICE_CART
 5.123462  0.000000  0.000000
 0.000000  5.157536  0.000000
 0.000000  0.000000 13.560213
%ENDBLOCK LATTICE_CART

%BLOCK POSITIONS_ABS
Li  2.856103  1.685800  3.448400
Li  0.294372  3.471736  3.331706
Li  4.829090  4.264567 10.111812
Li  2.267359  0.892968 10.228507
O  2.591304  2.020556  8.562898
O  0.750706  3.800301  8.442238
O  2.900912  4.277935  9.715435
O  2.910451  4.096036  7.165694
O  0.029573  3.136979 11.777421
O  3.312437  1.357235 11.898081
O  0.339181  0.879601 10.624884
O  0.348720  1.061500 13.174625
O  5.093889  4.599324  4.997314
O  1.811026  1.221533  5.117975
O  4.784281  1.699167  3.844778
O  4.774742  1.517268  6.394518
O  2.532158  0.558212  1.782792
O  4.372757  3.936003  1.662131
O  2.222550  3.458368  2.935328
O  2.213011  3.640268  0.385588
P  2.289618  3.551082  8.530155
P  4.851349  1.606454 11.810165
P  0.272113  0.972314  5.030058
P  2.833844  4.185222  1.750048
Fe  2.790872  0.997132  6.850505
Fe  0.229141  4.160403 13.489815
Fe  4.894322  3.575900  6.709708
Fe  2.332591  1.581636  0.070398
%ENDBLOCK POSITIONS_ABS

