#######################################################
#CASTEP cell file: refined-structures/074-2LFP-4952-474-2.cell
#Created using the Atomic Simulation Environment (ASE)#
#######################################################

%BLOCK LATTICE_CART
 5.111341  0.000000  0.000000
 0.000000  5.153908  0.000000
 0.000000  0.000000 13.549825
%ENDBLOCK LATTICE_CART

%BLOCK POSITIONS_ABS
Li  2.248880  3.462488 10.221776
Li  4.804551  1.691420 10.102963
Li  0.306791  0.885534  3.328050
Li  2.862461  4.268374  3.446863
O  2.896516  1.508334  7.172574
O  2.579583  4.580119  8.555575
O  2.872997  1.679716  9.722628
O  0.731526  1.199550  8.441133
O  0.340845  3.645574 13.152164
O  0.023912  0.573789 11.769163
O  0.317326  3.474192 10.602110
O  3.287197  3.954358 11.883605
O  4.770497  4.085288  6.377252
O  5.087430  2.003165  4.994250
O  4.794016  4.256670  3.827197
O  1.824145  3.776504  5.108693
O  2.214826  1.068620  0.397661
O  2.531759  3.150743  1.780662
O  2.238345  0.897238  2.947715
O  4.379816  1.377404  1.666220
P  2.270596  0.955665  8.531218
P  4.826267  4.198243 11.793520
P  0.285075  3.532619  5.018607
P  2.840746  1.621289  1.756306
Fe  4.875986  0.985143  6.705678
Fe  2.320315  4.168765  0.069235
Fe  2.791027  3.562097  6.844148
Fe  0.235356  1.591811 13.480590
%ENDBLOCK POSITIONS_ABS

