#######################################################
#CASTEP cell file: refined-structures/075-2LFP-11577-2798-5.cell
#Created using the Atomic Simulation Environment (ASE)#
#######################################################

%BLOCK LATTICE_CART
 4.795924  0.014750  0.000000
 0.254547  6.096039  0.000000
 0.000000  0.000000 10.543007
%ENDBLOCK LATTICE_CART

%BLOCK POSITIONS_ABS
Li  3.738381  3.218222  2.579346
Li  1.312091  2.892568  7.850850
Li  1.296951  4.590512  4.892623
Li  3.753520  1.520278 10.164127
O  2.695085  1.946216  6.469939
O  2.831659  4.469460  6.421438
O  4.873966  3.096926  5.656340
O  2.672232  3.164961  4.304493
O  2.355387  4.164573  1.198436
O  2.218812  1.641329  1.149934
O  0.176505  3.013864  0.384837
O  2.378240  2.945828  9.575996
O  4.782412  4.961173  2.926725
O  2.436718  0.153178  3.724802
O  4.598216  0.072806  5.143554
O  4.642578  1.362139  3.018748
O  0.268059  1.149617  8.198228
O  2.613753  5.957611  8.996306
O  0.452255  6.037983 10.415057
O  0.407893  4.748650  8.290252
P  3.333818  3.182355  5.725671
P  1.716653  2.928434  0.454167
P  3.989986  0.106173  3.682129
P  1.060485  6.004617  8.953633
Fe  1.255929  1.634965  4.710905
Fe  3.794542  4.475824  9.982409
Fe  1.515338  6.029378  1.765558
Fe  3.535133  0.081412  7.037062
%ENDBLOCK POSITIONS_ABS

