#######################################################
#CASTEP cell file: refined-structures/076-2LFP-11577-2798-5.cell
#Created using the Atomic Simulation Environment (ASE)#
#######################################################

%BLOCK LATTICE_CART
 4.794664  0.009567  0.000000
 0.247914  6.098125  0.000000
 0.000000  0.000000 10.523760
%ENDBLOCK LATTICE_CART

%BLOCK POSITIONS_ABS
Li  3.750041  3.196756  2.556799
Li  1.292537  2.910935  7.818679
Li  1.311036  4.591049  4.884052
Li  3.731542  1.516642 10.145932
O  2.694567  1.925699  6.446025
O  2.825782  4.447265  6.422895
O  4.878381  3.086126  5.656043
O  2.682051  3.161202  4.290426
O  2.348010  4.181992  1.184145
O  2.216795  1.660427  1.161015
O  0.164197  3.021565  0.394163
O  2.360527  2.946490  9.552306
O  4.781485  4.948059  2.920697
O  2.443383  0.138788  3.723300
O  4.606439  0.053575  5.138802
O  4.647324  1.346124  3.016124
O  0.261093  1.159633  8.182577
O  2.599195  5.968903  8.985180
O  0.436138  6.054116 10.400682
O  0.395254  4.761568  8.278004
P  3.336770  3.168420  5.714764
P  1.705808  2.939271  0.452884
P  3.996286  0.087611  3.678735
P  1.046291  6.020080  8.940614
Fe  1.260190  1.630073  4.699885
Fe  3.782387  4.477619  9.961765
Fe  1.511367  6.039944  1.762322
Fe  3.531210  0.067748  7.024202
%ENDBLOCK POSITIONS_ABS

