#######################################################
#CASTEP cell file: refined-structures/077-2LFP-12771-8445-9.cell
#Created using the Atomic Simulation Environment (ASE)#
#######################################################

%BLOCK LATTICE_CART
 7.637075  0.000000  0.000000
 0.000000  6.128172  0.000000
 0.000000  0.000000  7.709519
%ENDBLOCK LATTICE_CART

%BLOCK POSITIONS_ABS
Li  1.981686  4.946430  1.565146
Li  5.800224  1.181742  2.289614
Li  1.836851  1.882344  6.144374
Li  5.655389  4.245829  5.419905
O  4.703251  5.945392  5.883591
O  3.425508  5.327502  0.285293
O  5.567590  0.556080  0.432822
O  3.460501  1.611796  7.180555
O  0.884713  0.182781  5.680688
O  7.244046  0.800671  3.569467
O  1.749053  5.572092  3.421938
O  7.279038  4.516377  4.383724
O  6.752362  2.881306  1.825929
O  0.393029  2.263415  7.424226
O  5.888022  3.620166  7.276698
O  0.358037  4.675882  0.528964
O  2.933824  3.246867  2.028831
O  4.211567  3.864757  4.140053
O  2.069485  2.508006  4.287581
O  4.176574  1.452291  3.325795
P  4.277958  0.292707  7.300532
P  0.459421  5.835465  4.263747
P  7.177654  3.356793  0.408988
P  3.359117  2.771379  3.445772
Fe  3.599270  5.844118  4.200760
Fe  7.417808  0.284055  7.363519
Fe  0.219267  2.780032  3.508760
Fe  4.037805  3.348141  0.346000
%ENDBLOCK POSITIONS_ABS

