#######################################################
#CASTEP cell file: refined-structures/078-2LFP-4008-7075-2.cell
#Created using the Atomic Simulation Environment (ASE)#
#######################################################

%BLOCK LATTICE_CART
 6.159659  0.000000  0.000000
 0.000000  7.644517  0.000000
 0.000000  0.000000  7.660303
%ENDBLOCK LATTICE_CART

%BLOCK POSITIONS_ABS
Li  3.415576  3.750702  7.279905
Li  0.335747  3.893815  4.210550
Li  5.823912  7.572961  0.380398
Li  2.744082  0.071556  3.449754
O  1.360577  6.635671  7.562813
O  2.060746  7.486298  5.289149
O  3.126532  5.375302  6.241911
O  0.702023  5.343912  5.474428
O  4.440406  1.008846  3.927642
O  5.140576  0.158219  6.201306
O  0.046702  2.269215  5.248544
O  3.781852  2.300605  6.016027
O  1.719253  2.813413  0.097491
O  1.019083  3.664040  2.371154
O  6.112957  1.553044  1.418393
O  2.377806  1.521653  2.185875
O  4.799082  4.831104  3.732661
O  4.098912  3.980478  1.458998
O  3.033127  6.091473  2.411759
O  5.457636  6.122864  1.644277
P  1.810356  6.200273  6.141348
P  4.890185  1.444245  5.349107
P  1.269474  2.378014  1.518956
P  4.349303  5.266503  2.311196
Fe  4.885903  5.951674  5.410927
Fe  1.806073  1.692843  6.079527
Fe  4.353585  2.129416  2.249376
Fe  1.273756  5.515101  1.580776
%ENDBLOCK POSITIONS_ABS

