#######################################################
#CASTEP cell file: refined-structures/081-LFP-23100-4980-1.cell
#Created using the Atomic Simulation Environment (ASE)#
#######################################################

%BLOCK LATTICE_CART
 4.526598  0.000000 -0.056691
 0.000000  4.531650  0.000000
-0.131050  0.000000  7.783787
%ENDBLOCK LATTICE_CART

%BLOCK POSITIONS_ABS
Li  1.050808  3.942696  3.877408
Li  3.344740  1.676871  3.849688
O  2.432767  0.203526  6.821874
O  4.157176  3.006271  6.789006
O  2.461134  3.063122  4.882629
O  4.280366  0.349102  5.071866
O  1.962782  2.469351  0.905222
O  0.238372  0.740446  0.938091
O  1.934414  0.797297  2.844467
O  0.115182  2.614927  2.655230
P  3.313358  3.915501  5.837299
P  1.082190  1.649676  1.889797
Fe  3.496958  3.727898  0.938049
Fe  0.898590  1.462073  6.789047
%ENDBLOCK POSITIONS_ABS

