#######################################################
#CASTEP cell file: refined-structures/082-LFP-31300-262-2.cell
#Created using the Atomic Simulation Environment (ASE)#
#######################################################

%BLOCK LATTICE_CART
 4.838502 -0.000000  0.095792
 2.419249  4.705165  0.047896
 1.806593  0.000002  7.841244
%ENDBLOCK LATTICE_CART

%BLOCK POSITIONS_ABS
Li  4.740660  4.003094  1.077244
Li  3.224707  0.702073  4.949970
O  1.261584  0.872992  1.540199
O  2.151523  1.872640  3.705629
O  4.891219  2.829844  2.676627
O  4.860984  0.541900  3.831630
O  4.584131  3.832175  5.508717
O  5.474071  2.832528  7.674147
O  3.375260  1.875323  6.549353
O  8.183525  4.163268  7.800148
P  5.712025  1.547916  2.987184
P  4.196070  3.157252  6.859910
Fe  6.692262  1.262054  7.873133
Fe  3.369713  3.443114  3.904615
%ENDBLOCK POSITIONS_ABS

