#######################################################
#CASTEP cell file: refined-structures/083-LFP-8864-2791-32.cell
#Created using the Atomic Simulation Environment (ASE)#
#######################################################

%BLOCK LATTICE_CART
 5.287215 -0.025118 -0.005235
-3.054748  4.315529 -0.005235
-1.317421 -2.531852  7.815757
%ENDBLOCK LATTICE_CART

%BLOCK POSITIONS_ABS
Li  0.174855  1.855505  0.938716
Li -3.410478  2.112414  4.846594
O  2.411879  0.567214  3.619670
O -0.778087  2.558316  2.532824
O  0.249800 -0.702794  3.702187
O  1.085229  0.196158  1.477131
O  2.592683 -1.135544  7.527549
O -2.288049  1.735328  6.440703
O -0.261380  0.680540  7.604831
O -0.004614  1.880592  5.379775
P  1.524132 -0.431278  2.835767
P -0.770325  1.879964  6.738411
Fe -0.918918  0.952774  3.797751
Fe -3.522082  0.698622  7.705629
%ENDBLOCK POSITIONS_ABS

