#######################################################
#CASTEP cell file: refined-structures/084-LFP-23067-6668-6.cell
#Created using the Atomic Simulation Environment (ASE)#
#######################################################

%BLOCK LATTICE_CART
 4.511733  0.000000 -0.019028
 0.000000  4.535751  0.000000
-0.179682  0.000000  7.777126
%ENDBLOCK LATTICE_CART

%BLOCK POSITIONS_ABS
Li  3.191156  4.361938  7.758700
Li  1.140894  2.094063 -0.000602
O  0.254391  3.481331  1.027988
O  2.067210  0.768047  1.218036
O  0.211064  0.621478  2.960474
O  1.940045  3.434161  2.941442
O  4.077660  1.213455  6.730110
O  2.264840  3.035923  6.540062
O  4.120986  2.889353  4.797624
O  2.392005  1.166285  4.816656
P  1.100871  4.339000  1.983527
P  3.231180  2.071124  5.774571
Fe  1.126735  4.163782  4.871689
Fe  3.205316  1.895907  2.886409
%ENDBLOCK POSITIONS_ABS

