#######################################################
#CASTEP cell file: refined-structures/085-2LFP-18346-6481-3.cell
#Created using the Atomic Simulation Environment (ASE)#
#######################################################

%BLOCK LATTICE_CART
 6.205097  0.000000  0.000000
 0.000000  7.466215  0.000000
 0.000000  0.000000  7.340059
%ENDBLOCK LATTICE_CART

%BLOCK POSITIONS_ABS
Li  4.339929  1.855449  7.140543
Li  1.237381  5.610766  0.199517
Li  4.339929  5.588557  0.199517
Li  1.237381  1.877658  7.140543
O  2.753757  6.742751  3.965825
O  2.789636  5.693431  6.245121
O  4.051092  0.396297  5.870095
O  1.510362  0.386849  5.904127
O  5.856305  0.723464  3.374235
O  5.892184  1.772784  1.094938
O  0.948543  7.069918  1.469964
O  4.612910  7.079366  1.435932
O  2.753757  3.009643  3.374235
O  2.789636  1.960323  1.094938
O  4.051092  4.129404  1.469964
O  1.510362  4.119956  1.435932
O  5.856305  4.456571  3.965825
O  5.892184  5.505892  6.245121
O  0.948543  3.336811  5.870095
O  4.612910  3.346258  5.904127
P  2.778700  7.071328  5.467441
P  5.881249  0.394887  1.872619
P  2.778700  3.338220  1.872619
P  5.881249  4.127995  5.467441
Fe  2.785897  0.188621  2.217994
Fe  5.888445  7.277594  5.122066
Fe  2.785897  3.921729  5.122066
Fe  5.888445  3.544486  2.217994
%ENDBLOCK POSITIONS_ABS

