#######################################################
#CASTEP cell file: refined-structures/087-2LFP-7473-8062-7.cell
#Created using the Atomic Simulation Environment (ASE)#
#######################################################

%BLOCK LATTICE_CART
 4.770888  0.000000  0.000000
 0.000000  8.785936  0.000000
 0.000000  0.000000  8.456928
%ENDBLOCK LATTICE_CART

%BLOCK POSITIONS_ABS
Li  0.623323  3.956227  1.028310
Li  4.147566  4.829709  5.256774
Li  1.762122  8.349196  1.028310
Li  3.008767  0.436741  5.256774
O  2.169164  4.279735  2.323687
O  2.233498  6.781796  2.099605
O  4.071717  5.602860  3.428807
O  3.965038  5.379809  0.907192
O  2.601724  4.506201  6.552151
O  2.537390  2.004141  6.328069
O  0.699171  3.183077  7.657271
O  0.805850  3.406127  5.135656
O  0.216280  8.672703  2.323687
O  0.151946  2.388827  2.099605
O  3.084615  1.209891  3.428807
O  3.191294  0.986841  0.907192
O  4.554608  0.113233  6.552151
O  4.618942  6.397109  6.328069
O  1.686273  7.576045  7.657271
O  1.579594  7.799095  5.135656
P  3.104181  5.501715  2.208304
P  1.666707  3.284222  6.436768
P  4.052151  1.108746  2.208304
P  0.718737  7.677190  6.436768
Fe  3.102451  6.123617  7.704779
Fe  1.668437  2.662320  3.476315
Fe  4.053881  1.730648  7.704779
Fe  0.717007  7.055288  3.476315
%ENDBLOCK POSITIONS_ABS

