#######################################################
#CASTEP cell file: refined-structures/088-2LFP-12961-691-9.cell
#Created using the Atomic Simulation Environment (ASE)#
#######################################################

%BLOCK LATTICE_CART
 4.773701  0.000000  0.000000
 0.000000  8.745749  0.000000
 0.000000  0.000000  8.472330
%ENDBLOCK LATTICE_CART

%BLOCK POSITIONS_ABS
Li  3.014519  0.423676  7.270343
Li  1.759182  8.322073  3.034178
Li  4.146032  4.796551  7.270343
Li  0.627669  3.949198  3.034178
O  3.086809  1.221644  5.448927
O  3.189069  0.994966  2.925787
O  0.138822  2.409636  4.118182
O  0.223049  8.654741  4.337364
O  1.686892  7.524105  1.212762
O  1.584631  7.750783  7.161952
O  4.634879  6.336113  8.354348
O  4.550652  0.091008  0.101199
O  4.073742  5.594519  5.448927
O  3.971482  5.367840  2.925787
O  2.248028  6.782510  4.118182
O  2.163801  4.281867  4.337364
O  0.699958  3.151230  1.212762
O  0.802219  3.377909  7.161952
O  2.525672  1.963239  8.354348
O  2.609900  4.463882  0.101199
P  4.051282  1.123723  4.225514
P  0.722419  7.622026  8.461679
P  3.109269  5.496598  4.225514
P  1.664432  3.249151  8.461679
Fe  4.045690  1.709065  1.252567
Fe  0.728011  7.036684  5.488732
Fe  3.114861  6.081939  1.252567
Fe  1.658840  2.663810  5.488732
%ENDBLOCK POSITIONS_ABS

