#######################################################
#CASTEP cell file: refined-structures/089-2LFP-12155-5886-5.cell
#Created using the Atomic Simulation Environment (ASE)#
#######################################################

%BLOCK LATTICE_CART
 4.769204  0.000000 -0.015647
 0.000000  9.314824  0.000000
-3.440460  0.000000  7.689799
%ENDBLOCK LATTICE_CART

%BLOCK POSITIONS_ABS
Li  0.571105  1.562790  6.015497
Li  0.757638  6.220202  1.658656
Li  3.955867  2.962241  1.084569
Li -2.627123  7.619654  6.589583
O -2.087553  7.783707  4.722679
O  0.807685  7.839282  2.958498
O  1.129926  0.479072  4.520850
O  2.812694  0.100856  2.758612
O  3.416297  3.126295  2.951473
O  0.521059  3.181870  4.715654
O  0.198818  5.136484  3.153302
O -1.483950  4.758268  4.915541
O -2.576402  9.276624  7.663574
O -2.485825  2.314975  6.689224
O  0.896260  1.974786  1.478976
O  3.023664  1.340812  0.127443
O  3.905146  4.619212  0.010579
O  3.814569  6.972387  0.984929
O  0.432484  6.632198  6.195177
O -1.694920  5.998224  7.546709
P  1.867172  8.678485  3.742149
P -0.538428  4.021073  3.932003
P  1.470079  1.399724  0.140432
P -0.141335  6.057137  7.533720
Fe  1.755774  2.089465  3.367903
Fe -0.427031  6.746877  4.306250
Fe  4.135330  9.026253  1.330595
Fe -2.806586  4.368841  6.343557
%ENDBLOCK POSITIONS_ABS

