#######################################################
#CASTEP cell file: refined-structures/090-LFP-12156-6732-2.cell
#Created using the Atomic Simulation Environment (ASE)#
#######################################################

%BLOCK LATTICE_CART
 4.514838  0.000000  0.020044
 0.000000  4.509154  0.000000
 0.028918  0.000000  7.755229
%ENDBLOCK LATTICE_CART

%BLOCK POSITIONS_ABS
Li  1.154869  4.082060  7.760117
Li  3.388887  1.827483  0.015156
O  0.202200  2.752583  1.159350
O  2.034075  0.920314  1.113531
O  1.998153  2.674261  2.964740
O  0.275215  0.952224  2.958607
O  4.341557  0.498006  6.615923
O  2.509681  3.174891  6.661742
O  2.545603  0.419684  4.810533
O  4.268541  3.206801  4.816666
P  1.133253  1.822822  1.992562
P  3.410503  4.077399  5.782711
Fe  3.431021  4.028864  2.883473
Fe  1.112735  1.774287  4.891800
%ENDBLOCK POSITIONS_ABS

