#######################################################
#CASTEP cell file: refined-structures/091-2LFP-9456-216-5.cell
#Created using the Atomic Simulation Environment (ASE)#
#######################################################

%BLOCK LATTICE_CART
 4.952617  0.000000  0.000000
 0.000000  9.361181  0.000000
 0.000000  0.000000  6.342860
%ENDBLOCK LATTICE_CART

%BLOCK POSITIONS_ABS
Li  4.820228  8.610457  0.010116
Li  0.132389  5.431314  3.181546
Li  2.343920  0.750724  3.161314
Li  2.608697  3.929867  6.332743
O  3.565421  5.713753  6.342757
O  0.794306  5.915438  5.069068
O  0.786919  5.906965  1.287600
O  0.397952  3.794902  6.340921
O  1.387196  8.328019  3.171327
O  4.158311  8.126333  1.897638
O  4.165698  8.134807  4.459030
O  4.554665  0.885688  3.169491
O  1.089112  3.647428  3.171532
O  3.270615  3.445743  4.445222
O  3.263228  3.454216  1.883830
O  2.874261  5.566279  3.173368
O  3.863505  1.033162  0.000103
O  1.682002  1.234848  1.273792
O  1.689389  1.226374  5.055260
O  2.078356  8.475493  0.001938
P  0.132646  5.350739  0.003424
P  4.819971  8.691033  3.174853
P  2.608955  4.010442  3.168006
P  2.343662  0.670148  6.339436
Fe  0.002966  2.338162  4.754903
Fe  4.949651  2.342429  1.583473
Fe  2.479274  7.023019  4.759387
Fe  2.473343  7.018752  1.587957
%ENDBLOCK POSITIONS_ABS

