#######################################################
#CASTEP cell file: refined-structures/092-2LFP_REF-mp-850917.cell
#Created using the Atomic Simulation Environment (ASE)#
#######################################################

%BLOCK LATTICE_CART
 9.366812 -0.009033  0.018869
 0.007483  6.337275 -0.002944
-0.010818  0.003684  4.946576
%ENDBLOCK LATTICE_CART

%BLOCK POSITIONS_ABS
Li  1.589815  4.752275  2.353739
Li  3.086462  1.581616  4.829777
Li  6.277016  4.750311  0.132724
Li  7.773662  1.579652  2.608762
O  1.106139  0.303054  1.688869
O  1.108215  2.864269  1.687973
O  1.305501  1.584466  3.866311
O  1.452709  4.754319  4.548507
O  3.223645  1.582098  2.078954
O  3.375516  4.749045  1.396054
O  3.568406  3.469672  4.166226
O  3.573115  6.030522  4.164188
O  5.790362  0.301404  0.798314
O  5.795071  2.862254  0.796276
O  5.987961  1.582882  3.566448
O  6.139833  4.749828  2.883548
O  7.910768  1.577608  0.413995
O  8.057976  4.747461  1.096191
O  8.255263  3.467657  3.274528
O  8.257339  6.028873  3.273632
P  1.668136  1.583565  2.346048
P  3.007962  4.751311  4.821067
P  6.355515  1.580615  0.141435
P  7.695341  4.748361  2.616454
Fe  0.000000  0.000000  0.000000
Fe  0.003742  3.168638 -0.001472
Fe  4.677997 -0.002674  2.482723
Fe  4.681739  3.165963  2.481251
%ENDBLOCK POSITIONS_ABS

