#######################################################
#CASTEP cell file: refined-structures/093-LFP-9974-9224-21.cell
#Created using the Atomic Simulation Environment (ASE)#
#######################################################

%BLOCK LATTICE_CART
 4.808376  0.018142  0.000000
-0.019910  4.813689  0.000000
 0.000000  0.000000  7.701122
%ENDBLOCK LATTICE_CART

%BLOCK POSITIONS_ABS
Li  1.194367  3.610482  4.178909
Li  3.594099  1.221349  0.328348
O  2.096200  0.297968  5.223015
O  0.279185  0.311067  6.986878
O  2.098450  2.114061  6.990020
O  0.293689  2.117655  5.210238
O  2.692266  4.533863  1.372454
O  4.509281  4.520764  3.136317
O  2.690016  2.717770  3.139458
O  4.494777  2.714176  1.359677
P  1.191427  1.212007  6.102299
P  3.597039  3.619824  2.251738
Fe  3.599571  1.202899  4.175729
Fe  1.188896  3.628932  0.325168
%ENDBLOCK POSITIONS_ABS

