#######################################################
#CASTEP cell file: refined-structures/096-2LFP-12264-4017-6.cell
#Created using the Atomic Simulation Environment (ASE)#
#######################################################

%BLOCK LATTICE_CART
 5.013348 -0.073583  0.000000
-6.141294  8.761723  0.000000
 0.000000  0.000000  8.309576
%ENDBLOCK LATTICE_CART

%BLOCK POSITIONS_ABS
Li -2.425000  7.907146  3.124969
Li -1.773593  5.161856  7.279757
Li  1.297054  0.780994  5.184607
Li  0.645647  3.526284  1.029819
O -3.491968  7.372241  4.817853
O -1.227070  8.045558  5.595789
O  2.805033  0.484802  6.472242
O -2.793247  6.873020  7.225688
O -0.706624  5.696761  0.663064
O -2.971523  5.023444  1.441001
O -0.862332  3.822477  2.317453
O -1.405345  6.195982  3.070900
O  2.364023  1.315899  3.491724
O  0.099124  0.642582  2.713787
O -3.932979  8.203338  1.837335
O  1.665302  1.815120  1.083889
O -0.421321  2.991379  7.646512
O  1.843577  3.664696  6.868576
O -0.265614  4.865663  5.992123
O  0.277400  2.492158  5.238677
P -2.701283  7.894014  6.056772
P -1.497309  5.174988  1.901984
P  1.573338  0.794126  2.252804
P  0.369364  3.513152  6.407592
Fe -0.259192  6.397616  4.688688
Fe -3.939401  6.671386  0.533900
Fe -0.868754  2.290524  3.620889
Fe  2.811455  2.016754  7.775677
%ENDBLOCK POSITIONS_ABS

