#######################################################
#CASTEP cell file: refined-structures/098-LFP-15169-3053-35.cell
#Created using the Atomic Simulation Environment (ASE)#
#######################################################

%BLOCK LATTICE_CART
 5.274707 -0.085883  0.056888
-0.616854  6.603789 -0.059370
-0.260709 -4.279475  4.285995
%ENDBLOCK LATTICE_CART

%BLOCK POSITIONS_ABS
Li  1.025399  3.762114  1.325943
Li  3.371745 -1.523683  2.957570
O  4.492364 -2.469781  4.167647
O  1.431589 -1.636751  3.095740
O  1.664902  1.089887  0.831004
O  0.064754  2.629728  2.687726
O -0.095220  4.708212  0.115866
O  2.965555  3.875182  1.187774
O  2.732242  1.148544  3.452509
O  4.332390 -0.391297  1.595788
P  0.669003 -2.810583  3.790344
P  3.728142  5.049014  0.493169
Fe  3.603757  1.759836  1.597155
Fe  0.793388  0.478595  2.686358
%ENDBLOCK POSITIONS_ABS

