#######################################################
#CASTEP cell file: refined-structures/099-LFP-15168-2911-33.cell
#Created using the Atomic Simulation Environment (ASE)#
#######################################################

%BLOCK LATTICE_CART
 4.903537  0.025921 -0.066821
 0.902310  5.193774 -0.141702
 1.787670 -0.002348  5.791987
%ENDBLOCK LATTICE_CART

%BLOCK POSITIONS_ABS
Li  2.506651  1.036683  3.074404
Li  5.086866  4.180664  2.509060
O  3.336154  1.883183  4.704148
O  4.586854  0.886038  2.808840
O  5.508259  2.982772  3.925859
O  5.636473  0.750978  5.126152
O  4.257363  3.334164  0.879317
O  3.006663  4.331309  2.774624
O  2.085258  2.234575  1.657605
O  1.957044  4.466368  0.457313
P  4.781774  1.638599  4.164383
P  2.811743  3.578748  1.419082
Fe  5.319264  1.385572  0.748860
Fe  2.274253  3.831775  4.834605
%ENDBLOCK POSITIONS_ABS

