#######################################################
#CASTEP cell file: refined-structures/103-LFP-15169-3053-4.cell
#Created using the Atomic Simulation Environment (ASE)#
#######################################################

%BLOCK LATTICE_CART
 4.909215  0.011177 -0.020351
 0.955978  5.189110 -0.084915
 1.744638 -0.051566  5.790221
%ENDBLOCK LATTICE_CART

%BLOCK POSITIONS_ABS
Li  4.637778  1.545988  2.624670
Li  2.972052  3.602732  3.060285
O  6.085552  3.280790  5.128009
O  5.051365  3.443104  2.802681
O  3.795952  4.431067  4.698916
O  5.026727  0.331660  4.034033
O  1.524278  1.867930  0.556946
O  2.558466  1.705616  2.882274
O  3.813878  0.717653  0.986039
O  2.583103  4.817060  1.650923
P  5.244160  4.180359  4.166154
P  2.365670  0.968361  1.518801
Fe  1.770024  1.192313  4.927147
Fe  5.839806  3.956407  0.757808
%ENDBLOCK POSITIONS_ABS

