#######################################################
#CASTEP cell file: refined-structures/105-2LFP-6321-192-6.cell
#Created using the Atomic Simulation Environment (ASE)#
#######################################################

%BLOCK LATTICE_CART
 7.392518  0.000000  0.000000
 0.000000  6.193869 -0.000000
 0.000000 -3.096936  7.396868
%ENDBLOCK LATTICE_CART

%BLOCK POSITIONS_ABS
Li  5.547316  4.107474  0.205248
Li  1.845202  1.010538  7.191620
Li  1.851057 -2.086397  7.191620
Li  5.541461  1.010539  0.205248
O  0.383198 -1.806723  5.916298
O  6.633205 -0.537010  4.011310
O  5.603058 -0.537097  6.293322
O  0.379439  0.735641  5.916164
O  7.009320  1.290212  1.480570
O  0.759313  2.559922  3.385550
O  1.789460  2.559838  1.103546
O  7.013079  3.832570  1.480703
O  4.079457  4.387147  1.480570
O  2.936946 -0.537013  3.385550
O  1.906799  5.656773  1.103546
O  4.075698  0.735636  1.480703
O  3.313061  1.290212  5.916298
O  4.455572  2.559925  4.011310
O  5.485719  2.559837  6.293322
O  3.316820 -2.361294  5.916164
P  6.979356 -0.536428  5.511737
P  0.413162  2.560513  1.885131
P  3.283097 -0.536421  1.885131
P  4.109421  2.560507  5.511737
Fe  3.865642 -0.534732  5.124989
Fe  3.526876  2.562204  2.271879
Fe  0.169383 -0.534731  2.271879
Fe  7.223135  2.562203  5.124989
%ENDBLOCK POSITIONS_ABS

