#######################################################
#CASTEP cell file: refined-structures/106-LFP-23101-3759-7.cell
#Created using the Atomic Simulation Environment (ASE)#
#######################################################

%BLOCK LATTICE_CART
 4.907057  0.012501  0.067589
-1.737641  5.801210  0.074641
-4.018673  0.029760  5.128981
%ENDBLOCK LATTICE_CART

%BLOCK POSITIONS_ABS
Li  0.417983  3.152375  1.618027
Li -1.267240  2.691097  3.653184
O  0.828868  1.747066  0.403452
O -0.455490  1.044616  4.480440
O  0.810038  2.946106  3.518854
O  1.848037  0.623330  3.355319
O -1.678125  4.096406  4.867759
O -0.393767  4.798856  0.790772
O -1.659296  2.897366  1.752358
O -2.697294  5.220142  1.915893
P  0.994777  1.578730  4.249709
P -1.844034  4.264742  1.021502
Fe  2.471243  0.865385  1.286806
Fe -3.320501  4.978087  3.984405
%ENDBLOCK POSITIONS_ABS

