#######################################################
#CASTEP cell file: refined-structures/107-LFP-19058-5519-47.cell
#Created using the Atomic Simulation Environment (ASE)#
#######################################################

%BLOCK LATTICE_CART
 4.904189 -0.001516 -0.024134
-3.183809  5.811635  0.115726
-0.909774  0.041216  5.188941
%ENDBLOCK LATTICE_CART

%BLOCK POSITIONS_ABS
Li  0.701954  0.262042  4.154154
Li  0.108653  5.589294  1.126379
O  1.909305  3.503073  0.781452
O -0.701826  3.938393  1.944816
O  1.209191  0.021273  0.860473
O -2.884442  4.669117  3.054744
O -1.098699  2.348262  4.499081
O  1.512432  1.912942  3.335717
O -0.398584  5.830063  4.420060
O  3.695049  1.182219  2.225789
P -2.153799  4.463913  1.707891
P  2.964405  1.387423  3.572643
Fe  0.451400  2.062299  1.390314
Fe  0.359207  3.789036  3.890220
%ENDBLOCK POSITIONS_ABS

