#######################################################
#CASTEP cell file: refined-structures/108-2LFP-7943-4425-6.cell
#Created using the Atomic Simulation Environment (ASE)#
#######################################################

%BLOCK LATTICE_CART
 6.191096 -0.048284 -0.000000
 0.084955  7.393383  0.000000
 3.095546 -0.024142  7.391528
%ENDBLOCK LATTICE_CART

%BLOCK POSITIONS_ABS
Li  6.254812  5.496753  3.492735
Li  3.116786  1.824204  3.898794
Li  3.159264  5.520895  3.486861
Li  6.212334  1.800061  3.904668
O  5.950230  4.036342  2.217994
O  4.667590  1.871782  2.593424
O  3.410583  4.049121  2.213902
O  4.680600  2.899713  0.311207
O  6.559394  6.957164  2.217994
O  1.565982  1.776626  2.593424
O  2.907945  6.992669  2.213902
O  1.552974  0.748694  0.311207
O  3.421368  3.284615  5.173535
O  4.704008  5.449175  4.798104
O  5.961015  3.271835  5.177627
O  4.690998  4.421243  7.080321
O  2.812203  0.363793  5.173535
O  7.805615  5.544331  4.798104
O  6.463652  0.328287  5.177627
O  7.818623  6.572263  7.080321
P  4.677113  3.246839  1.812005
P  1.556454  0.401568  1.812005
P  4.694482  4.074118  5.579516
P  7.815141  6.919388  5.579516
Fe  7.792674  3.806303  5.966201
Fe  4.716954  7.187203  5.966201
Fe  1.578923  3.514654  1.425328
Fe  4.654644  0.133753  1.425328
%ENDBLOCK POSITIONS_ABS

