#######################################################
#CASTEP cell file: refined-structures/109-2LFP-24926-5015-7.cell
#Created using the Atomic Simulation Environment (ASE)#
#######################################################

%BLOCK LATTICE_CART
 6.192663  0.000000  0.028253
 0.000000  7.375206  0.000000
-3.174856  0.000000  7.388165
%ENDBLOCK LATTICE_CART

%BLOCK POSITIONS_ABS
Li  1.546281  1.860910  0.215536
Li -1.624806  5.548513  7.186755
Li  1.471526  5.514296  7.200882
Li  4.642612  1.826693  0.229663
O  3.086522  5.587881  1.114423
O  1.801162  0.377644  1.462014
O  3.013176  6.610894  3.399161
O  4.341956  0.387931  1.535816
O  3.027617  1.900278  6.316121
O -1.879687  4.065247  5.940278
O  3.100962  2.923292  4.031384
O  1.772182  4.075534  5.894729
O -0.068715  1.787324  6.301995
O  1.216645  6.997562  5.954405
O  0.004631  0.764311  4.017257
O -1.324149  6.987275  5.880602
O -0.009810  5.474927  1.100297
O  4.897494  3.309959  1.476140
O -0.083155  4.451914  3.385034
O  1.245625  3.299672  1.521689
P  3.063914  6.961200  1.900208
P  3.050224  3.273598  5.530337
P -0.046107  0.414005  5.516211
P -0.032418  4.101608  1.886081
Fe -0.060456  3.521116  5.125623
Fe -0.018069  7.208719  2.276668
Fe  3.078263  3.854090  2.290795
Fe  3.035875  0.166487  5.139750
%ENDBLOCK POSITIONS_ABS

