#######################################################
#CASTEP cell file: refined-structures/110-LFP-31963-9153-15.cell
#Created using the Atomic Simulation Environment (ASE)#
#######################################################

%BLOCK LATTICE_CART
 4.874918 -0.035950 -0.185491
 2.484348  4.510420 -0.143178
 5.947812  3.632409  8.033274
%ENDBLOCK LATTICE_CART

%BLOCK POSITIONS_ABS
Li  5.669307  1.418519  0.739946
Li  7.637771  6.688361  6.964659
O  7.329794  3.255541  3.023095
O  2.167661  2.913287  0.774235
O  4.141351  4.313366  1.595353
O  4.150035  1.818554  2.008676
O  5.977284  4.851339  4.681510
O 11.139417  5.193592  6.930369
O  9.165727  3.793514  6.109252
O  9.157043  6.288326  5.695929
P  3.236476  3.069395  1.849795
P 10.070602  5.037484  5.854810
Fe  5.804469  4.655380  2.647802
Fe  7.502609  3.451500  5.056803
%ENDBLOCK POSITIONS_ABS

