#######################################################
#CASTEP cell file: refined-structures/111-2LFP-12771-8445-3.cell
#Created using the Atomic Simulation Environment (ASE)#
#######################################################

%BLOCK LATTICE_CART
 4.794749  0.000000  0.000000
 0.000000  6.115297 -0.003169
 0.000000 -0.526247 10.597949
%ENDBLOCK LATTICE_CART

%BLOCK POSITIONS_ABS
Li  3.088361  4.020575  5.814920
Li  0.690986  1.568475  4.779861
Li  0.696995  2.556188  7.557409
Li  3.094369  3.032862  3.037372
O  4.506792  0.186565  0.934668
O  1.897563  1.407153  1.622910
O  4.628995  2.647735  0.708362
O  4.487322  1.579134  2.997356
O  2.109417  5.402485  9.660112
O  4.294937  4.181896  8.971870
O  2.231621  2.941314  9.886419
O  2.089948  4.009915  7.597425
O  1.714835  4.458875  2.228344
O  1.581595 -0.187582  4.226823
O  4.302764  4.542490  3.549998
O  1.624766  3.381759  4.490152
O  4.112210  1.130174  8.366436
O  3.978969  5.776631  6.367958
O  1.905389  1.046560  7.044783
O  4.022140  2.207290  6.104628
P  0.351991  1.478783  1.595941
P  2.749365  4.110266  8.998840
P  1.054613  4.571419  3.684953
P  3.451987  1.017631  6.909827
Fe  3.106240 -0.065330  2.737863
Fe  0.708866  5.654379  7.856918
Fe  0.654377  4.523192  0.378628
Fe  3.051751  1.065858 10.216152
%ENDBLOCK POSITIONS_ABS

