#######################################################
#CASTEP cell file: refined-structures/112-2LFP-19839-7511-7.cell
#Created using the Atomic Simulation Environment (ASE)#
#######################################################

%BLOCK LATTICE_CART
 6.414040  0.000000  0.000000
 0.000000  7.222836  0.000000
 0.000000  0.000000  6.971483
%ENDBLOCK LATTICE_CART

%BLOCK POSITIONS_ABS
Li  1.609855  2.371602  0.006412
Li  4.804184  5.983020  3.479330
Li  4.816875  1.239816  6.965072
Li  1.597164  4.851234  3.492153
O  4.770498  4.902379  1.752211
O  4.765598  2.317622  1.724946
O  0.109649  3.619988  0.455553
O  0.108347  3.592822  3.024849
O  1.643542  1.290961  1.733531
O  1.648441  5.929040  1.760796
O  6.304390  0.008570  3.030189
O  6.305692  7.204240  0.460893
O  1.563478  5.931875  5.219273
O  1.558578  1.293796  5.246538
O  3.316669  7.214266  6.515930
O  3.315367  0.018596  3.946634
O  4.850562  2.320457  5.237953
O  4.855461  4.905213  5.210687
O  3.097370  3.602848  3.941295
O  3.098672  3.630014  6.510591
P  5.640840  3.608255  1.739996
P  0.773199  7.219673  1.745746
P  2.433820  0.003162  5.231487
P  3.980219  3.614580  5.225738
Fe  0.001568  1.803204  4.004356
Fe  6.412471  5.414622  6.452869
Fe  3.208588  1.808214  2.967128
Fe  3.205451  5.419632  0.518614
%ENDBLOCK POSITIONS_ABS

