#######################################################
#CASTEP cell file: refined-structures/113-2LFP-24997-4087-4.cell
#Created using the Atomic Simulation Environment (ASE)#
#######################################################

%BLOCK LATTICE_CART
 4.983755  0.000000  0.000000
 0.000000  9.770672 -0.082907
 0.000000 -4.925540  7.350588
%ENDBLOCK LATTICE_CART

%BLOCK POSITIONS_ABS
Li  0.811184  0.060813  5.459167
Li  0.811184  4.784319  1.808513
Li  3.302900  2.324810  5.495223
Li  3.302900  2.520322  1.772457
O  2.415548 -0.890843  2.700282
O  4.232808 -0.886069  4.467455
O  4.180051  0.935995  2.717370
O  2.359370  0.888099  4.498554
O  2.415548  5.735975  4.567398
O  4.232808  5.731201  2.800226
O  4.180051  3.909136  4.550311
O  2.359370  3.957033  2.769126
O  4.908433  8.206025  0.902364
O  4.850848  1.500010  6.455169
O  1.741243  3.274526  6.482599
O  1.690252  6.378406  0.883495
O  4.908433 -3.360893  6.365317
O  4.850848  3.345122  0.812512
O  1.741243  1.570605  0.785081
O  1.690252 -1.533275  6.384185
P  3.293663  0.044896  3.638303
P  3.293663  4.800236  3.629378
P  0.802580  7.269445 -0.036019
P  0.802580 -2.424313  7.303699
Fe  3.311694  7.209232  1.734140
Fe  3.311694 -2.364100  5.533540
Fe  0.819080  0.107374  1.868062
Fe  0.819080  4.737757  5.399618
%ENDBLOCK POSITIONS_ABS

