#######################################################
#CASTEP cell file: refined-structures/114-2LFP-23232-1625-2.cell
#Created using the Atomic Simulation Environment (ASE)#
#######################################################

%BLOCK LATTICE_CART
 7.224883  0.000000  0.000000
 0.000000  6.980376  0.000000
 0.000000  0.000000  6.417970
%ENDBLOCK LATTICE_CART

%BLOCK POSITIONS_ABS
Li  1.235244  6.980004  1.602942
Li  5.989640  3.489816  1.606043
Li  4.847686  3.490560  4.815028
Li  2.377198  0.000372  4.811927
O  2.325768  1.714648  1.647302
O  4.908296  1.760783  1.648339
O  3.639227  0.455293  6.306473
O  3.596649  3.024652  6.309426
O  4.899116  5.204836  1.561683
O  2.316588  5.250971  1.560646
O  3.585657  3.945481  3.320482
O  3.628235  6.514840  3.317529
O  5.938210  1.775540  4.770668
O  1.295854  1.729405  4.769631
O  0.026785  3.034895  0.111497
O  7.209091  0.465537  0.108544
O  1.286674  5.265728  4.856287
O  5.929030  5.219593  4.857324
O  7.198099  6.525084  3.097488
O  0.015793  3.955725  3.100441
P  3.617245  1.739040  0.773087
P  3.607638  5.229228  2.435898
P  0.004803  1.751148  5.644883
P  7.220080  5.241336  3.982072
Fe  1.815777  4.023876  6.402945
Fe  5.409106  0.533688  3.224010
Fe  5.428219  6.446688  0.015025
Fe  1.796664  2.956500  3.193960
%ENDBLOCK POSITIONS_ABS

