#######################################################
#CASTEP cell file: refined-structures/115-LFP-23066-6472-4.cell
#Created using the Atomic Simulation Environment (ASE)#
#######################################################

%BLOCK LATTICE_CART
 4.979986  0.000000  0.000000
 2.489997  4.414613  0.097321
 2.489996 -1.313660  8.049070
%ENDBLOCK LATTICE_CART

%BLOCK POSITIONS_ABS
Li  5.280055  1.588306  0.990926
Li  5.280058  1.512648  7.155465
O  3.682416 -0.186853  4.798273
O  3.724582  0.257790  7.291973
O  6.840265  1.249500  5.810289
O  4.403071  3.181318  6.390662
O  3.682418  3.287807  3.348118
O  3.724582  2.843164  0.854418
O  6.840264  1.851454  2.336102
O  4.403067 -0.080364  1.755729
P  2.798723  0.034096  6.102191
P  2.798721  3.066853  2.044201
Fe  2.785713  0.134923  2.936851
Fe  7.765707  2.966031  5.209541
%ENDBLOCK POSITIONS_ABS

