#######################################################
#CASTEP cell file: refined-structures/116-2LFP-31578-197-10.cell
#Created using the Atomic Simulation Environment (ASE)#
#######################################################

%BLOCK LATTICE_CART
 6.250066  0.000000  0.000000
 0.000000  7.319734  0.000000
 0.000000  0.000000  6.971351
%ENDBLOCK LATTICE_CART

%BLOCK POSITIONS_ABS
Li  3.125033  3.248591  0.000000
Li  0.000000  4.071143  3.485676
Li  0.000000  3.247538  0.000000
Li  3.125033  4.072195  3.485676
O  4.687830  6.865668  0.421163
O  4.687522  4.381052  0.105627
O  5.959354  5.402562  2.070669
O  3.415840  5.401427  2.070957
O  1.562236  6.865668  6.550188
O  1.562544  4.381052  6.865724
O  0.290712  5.402562  4.900682
O  2.834226  5.401427  4.900394
O  4.687269  0.454066  3.906839
O  4.687577  2.938682  3.591303
O  3.415745  1.917171  5.556345
O  5.959259  1.918307  5.556633
O  1.562797  0.454066  3.064512
O  1.562489  2.938682  3.380049
O  2.834321  1.917171  1.415007
O  0.290807  1.918307  1.414718
P  4.687558  5.492464  1.183221
P  1.562508  5.492464  5.788131
P  4.687541  1.827269  4.668897
P  1.562525  1.827269  2.302455
Fe  4.688075  1.162806  1.834798
Fe  1.561991  1.162806  5.136554
Fe  4.687024  6.156928  5.320474
Fe  1.563042  6.156928  1.650878
%ENDBLOCK POSITIONS_ABS

