#######################################################
#CASTEP cell file: refined-structures/122-2LFP-12156-6028-7.cell
#Created using the Atomic Simulation Environment (ASE)#
#######################################################

%BLOCK LATTICE_CART
 5.054189  0.078054  0.000000
-2.098660  8.558466  0.000000
 0.000000  0.000000  8.519254
%ENDBLOCK LATTICE_CART

%BLOCK POSITIONS_ABS
Li  2.463287  5.588673  1.686880
Li  0.492242  3.047847  5.946508
Li -1.740957  6.955332  4.485196
Li -0.357703  1.603134  0.225568
O  1.266846  0.392720  8.134242
O  2.495429  7.498576  7.044143
O  4.696166  1.388052  6.505259
O -0.638039  8.258803  5.647766
O  1.688683  8.243800  3.874615
O  0.460100  1.137944  2.784516
O -1.740637  7.248468  2.245632
O  3.593568  0.377717  1.388138
O  0.214421  3.305980  0.879281
O  0.639561  5.807537  0.863802
O  0.477469  4.515545  7.209367
O  3.438825  4.980594  0.094690
O  2.741107  5.330540  5.138908
O  2.315967  2.828983  5.123430
O  2.478060  4.120975  2.949739
O -0.483297  3.655925  4.354317
P  0.505474  0.019581  6.833109
P  2.450055  8.616939  2.573481
P -0.100659  4.625894  0.134575
P  3.056187  4.010626  4.394202
Fe  2.185740  5.576972  7.104925
Fe  0.769788  3.059548  2.845297
Fe -0.104178  7.710612  1.046079
Fe  3.059706  0.925908  5.305706
%ENDBLOCK POSITIONS_ABS

