#######################################################
#CASTEP cell file: refined-structures/123-2LFP_REF-mp-26559.cell
#Created using the Atomic Simulation Environment (ASE)#
#######################################################

%BLOCK LATTICE_CART
 8.464757  0.000000  0.000518
 0.000000  5.444640  0.000000
-1.998331  0.000000  7.694779
%ENDBLOCK LATTICE_CART

%BLOCK POSITIONS_ABS
Li  2.888321  0.858296  7.443401
Li  5.630014  3.590579  3.860397
Li -1.344057  4.586344  7.443142
Li  1.397636  1.854060  3.860138
O  0.015884  3.826505  6.309879
O  2.410482  4.582710  6.772724
O  5.204610  1.073165  1.692793
O  0.893583  0.552709  5.315362
O -0.107082  2.199042  2.497823
O  6.003704  1.735043  4.492334
O  1.771325  3.709597  4.492075
O  3.292541  1.888364  0.450763
O  7.128037  4.361459  2.846121
O  5.125961  4.891931  5.315621
O  2.895658  1.083181  2.845862
O  6.642860  0.861929  6.772983
O  7.524919  3.556275  0.451022
O  4.125296  3.245598  2.498082
O  0.972232  4.371474  1.692534
O  4.248263  1.618135  6.310138
P  1.267557  4.531297  5.706214
P -0.364892  3.608933  1.890328
P  5.499936  0.913342  5.706473
P  3.867486  1.835706  1.890588
Fe  4.160103  3.613046  6.687973
Fe  6.867458  0.899210  2.816495
Fe  2.635079  4.545430  2.816236
Fe -0.072275  1.831593  6.687714
%ENDBLOCK POSITIONS_ABS

