#######################################################
#CASTEP cell file: refined-structures/125-2LFP-12264-4017-7.cell
#Created using the Atomic Simulation Environment (ASE)#
#######################################################

%BLOCK LATTICE_CART
 5.778977  0.111995  0.000000
-3.504373  5.386141  0.000000
 0.000000  0.000000 10.283371
%ENDBLOCK LATTICE_CART

%BLOCK POSITIONS_ABS
Li  1.722785  4.811946  6.144471
Li  1.689121  3.435258  1.002785
Li  0.551819  0.686190  4.138901
Li  0.585483  2.062878  9.280586
O  0.445822  4.015243  9.799376
O  3.184221  0.178088  8.031511
O  4.748488  1.077669  9.848214
O  2.137507  4.905965  8.060178
O  2.966085  4.231960  4.657690
O  3.732059  2.682975  2.889825
O  2.167791  1.783394  4.706528
O  1.274400  3.341239  2.918492
O  1.828783  1.482893  0.483995
O -0.909616  5.320048  2.251861
O -2.473884  4.420467  0.435158
O  0.137097  0.592171  2.223194
O -0.691480  1.266175  5.625681
O -1.457454  2.815161  7.393546
O  0.106813  3.714742  5.576844
O  1.000205  2.156897  7.364880
P  0.921330  5.230838  8.951449
P  2.490577  3.016366  3.809763
P  1.353275  0.267298  1.331923
P -0.215973  2.481770  6.473608
Fe  2.890065  1.598903  6.592631
Fe  4.026214  1.262159  1.450945
Fe -0.615461  3.899233  3.690740
Fe -1.751610  4.235976  8.832426
%ENDBLOCK POSITIONS_ABS

