#######################################################
#CASTEP cell file: refined-structures/126-LFP-21279-8936-42.cell
#Created using the Atomic Simulation Environment (ASE)#
#######################################################

%BLOCK LATTICE_CART
 5.251226  0.000000 -0.138826
 0.000000  5.924153  0.000000
 0.185975  0.000000  5.729023
%ENDBLOCK LATTICE_CART

%BLOCK POSITIONS_ABS
Li  4.319218  4.616287  3.493868
Li  1.117983  1.654211  2.096329
O  1.349879  0.018936  0.982395
O  1.038517  3.401663  1.086334
O  3.174899  4.454506  1.940955
O  0.994122  4.793984  3.207119
O  4.087322  2.981013  4.607802
O  4.398684  0.439587  4.503863
O  2.262302  1.492429  3.649242
O  4.443079  1.831907  2.383078
P  1.638623  4.643125  1.806611
P  3.798578  1.681048  3.783586
Fe  1.227751  0.156931  4.765388
Fe  4.209450  3.119008  0.824809
%ENDBLOCK POSITIONS_ABS

