#######################################################
#CASTEP cell file: refined-structures/127-LFP-21784-8189-11.cell
#Created using the Atomic Simulation Environment (ASE)#
#######################################################

%BLOCK LATTICE_CART
 5.918323  0.197535  0.355552
-1.851030  5.634538 -0.204351
-1.851030 -3.150112  4.676171
%ENDBLOCK LATTICE_CART

%BLOCK POSITIONS_ABS
Li  4.555988  0.251821  2.141080
Li  1.596826  1.586130  1.167124
O  2.032423  3.411520  0.320013
O  2.935085  0.125862  0.894346
O -1.466161  1.335033  3.310783
O -0.435134  3.660508  0.832194
O -0.926739 -1.629285  2.887905
O -0.024077  0.594106  0.401553
O  1.493001  2.204590  3.060329
O  2.524028 -1.128406  3.725439
P  0.809533  4.342363  0.148992
P  3.768695 -2.068702  3.943462
Fe  2.116576  0.796446  4.453237
Fe -0.842586  3.261603  2.851011
%ENDBLOCK POSITIONS_ABS

