#######################################################
#CASTEP cell file: refined-structures/128-LFP-12154-4940-4.cell
#Created using the Atomic Simulation Environment (ASE)#
#######################################################

%BLOCK LATTICE_CART
 5.921288  0.163872  0.307740
-1.829946  5.648045 -0.088649
-1.829946 -3.226113  4.636860
%ENDBLOCK LATTICE_CART

%BLOCK POSITIONS_ABS
Li  3.566818 -0.323284  1.136098
Li  0.606174  1.041163  0.212026
O  0.802470 -0.776074  3.277408
O -1.660458 -0.478837  3.778716
O -0.014821  1.518733  3.778686
O -0.725862  0.479785  1.596698
O  3.763114  3.234472  1.339284
O  1.300186  3.484513  1.865724
O  2.945823  2.369509  3.523147
O  2.234782  1.138960  1.443187
P -0.442580  0.169473  3.079810
P  2.518064  2.542746  2.013538
Fe -0.629843  2.960677  2.422932
Fe  2.330801  0.439755  3.962829
%ENDBLOCK POSITIONS_ABS

