#######################################################
#CASTEP cell file: refined-structures/131-LFP-507-7040-13.cell
#Created using the Atomic Simulation Environment (ASE)#
#######################################################

%BLOCK LATTICE_CART
 5.928718 -0.217814  0.127811
-2.378030  5.435266  0.127811
-1.879995 -2.762502  4.901260
%ENDBLOCK LATTICE_CART

%BLOCK POSITIONS_ABS
Li  1.030812  2.968897  3.537864
Li  3.323580  3.429532  1.087234
O  0.442058  1.430488  2.408149
O  3.935589  0.811656  2.247253
O -0.861451  2.642216  0.528848
O  5.635575 -0.065503  0.493566
O  0.228510 -0.445142  4.858779
O -1.629030  2.577648  4.697883
O  1.834013 -1.213115  2.979478
O -3.068778  3.837206  2.944196
P -0.677032  1.315945  1.301777
P  0.532581 -1.528203  3.752406
Fe -1.367668  0.602323  4.043896
Fe  2.002143  0.329987  1.593267
%ENDBLOCK POSITIONS_ABS

