#######################################################
#CASTEP cell file: refined-structures/134-LFP-21279-8936-38.cell
#Created using the Atomic Simulation Environment (ASE)#
#######################################################

%BLOCK LATTICE_CART
 5.916747  0.145287  0.273666
-1.818399  5.655603 -0.071863
-1.818399 -3.228073  4.644411
%ENDBLOCK LATTICE_CART

%BLOCK POSITIONS_ABS
Li  0.003798  5.118262  0.665198
Li  2.962171 -2.243860  4.749089
O  1.716663  0.711941  2.293326
O  0.928458 -0.143493  4.488367
O  3.386456 -0.404610  3.929073
O  2.467834  1.944492  4.356770
O -1.241711  1.428109  1.737719
O -2.029916  3.725571  2.258912
O  0.428083  3.408585  1.729280
O -0.490540  2.446774  3.914713
P  2.168317  0.538374  3.797737
P -0.790057  2.771490  2.436794
Fe  2.357751  2.639443  1.856353
Fe -0.600623 -0.013727  3.089502
%ENDBLOCK POSITIONS_ABS

