#######################################################
#CASTEP cell file: refined-structures/135-LFP-507-7040-10.cell
#Created using the Atomic Simulation Environment (ASE)#
#######################################################

%BLOCK LATTICE_CART
 5.196626 -0.385142 -0.076629
 0.518287  5.829288  0.211177
 0.272072  3.640552  5.883058
%ENDBLOCK LATTICE_CART

%BLOCK POSITIONS_ABS
Li  1.844042  3.006468  1.958688
Li  4.142943  6.078230  4.058919
O  2.251662  6.528252  4.407921
O  1.505014  3.226972  3.845826
O  5.302717  7.318836  5.014228
O  1.967576  4.556373  0.493976
O  3.735323  2.556446  1.609685
O  4.481971  5.857726  2.171781
O  0.684268  1.765862  1.003379
O  4.019409  4.528325  5.523630
P  1.648522  7.835209  4.959300
P  4.338463  1.249489  1.058307
Fe  1.901154  4.644717  5.262058
Fe  4.085830  4.439981  0.755548
%ENDBLOCK POSITIONS_ABS

