#######################################################
#CASTEP cell file: refined-structures/137-LFP-15169-3053-39.cell
#Created using the Atomic Simulation Environment (ASE)#
#######################################################

%BLOCK LATTICE_CART
 4.925814 -0.000000 -0.036491
 2.462908  5.189601 -0.018245
 2.519602  0.000001  7.411461
%ENDBLOCK LATTICE_CART

%BLOCK POSITIONS_ABS
Li  2.594932  1.292950  3.499781
Li  8.780547  3.896652  7.169021
O  4.738171  3.040967  0.802615
O  2.861743  4.758779  0.837731
O  2.913170  2.999887  2.607172
O  4.731190  4.779692  2.594596
O  5.997972  2.148634  4.508345
O  4.121543  0.430823  4.543461
O  4.172971  2.189715  6.312903
O  5.990990  0.409910  6.300326
P  3.811255  3.894811  1.705152
P  5.071056  1.294790  5.410883
Fe  6.291690  3.887491  3.568470
Fe  7.551491  1.302111  7.274200
%ENDBLOCK POSITIONS_ABS

