#######################################################
#CASTEP cell file: refined-structures/138-2LFP-12771-8445-6.cell
#Created using the Atomic Simulation Environment (ASE)#
#######################################################

%BLOCK LATTICE_CART
 6.181836  0.000000  0.000000
 0.000000  5.020178  0.000000
 0.000000  0.000000 10.881069
%ENDBLOCK LATTICE_CART

%BLOCK POSITIONS_ABS
Li  4.746084  0.770242  1.874341
Li  1.655165  4.249936  3.566194
Li  4.526671  3.280331  9.006728
Li  1.435753  1.739847  7.314875
O  1.373458  1.157294  3.828643
O  6.170955  1.253130  5.984496
O  0.213180  3.302969  4.517596
O  5.014914  1.326257  3.714944
O  4.464376  3.862884  1.611891
O  3.080036  3.767048 10.337108
O  3.304098  1.717209  0.922939
O  1.923996  3.693921  1.725590
O  1.717460  3.667383  7.052426
O  3.101800  3.763219  4.896574
O  2.877738  0.792880  6.363474
O  4.257840  3.836346  7.166125
O  4.808378  1.352795  9.269178
O  0.010882  1.256959  0.543961
O  5.968656  4.227298  9.958130
O  1.166922  1.183832  9.155479
P  0.105446  1.754777  4.507906
P  3.196364  3.265400  0.932629
P  2.985472  4.264866  6.373163
P  6.076390  0.755312  9.948440
Fe  2.963617  0.795034 10.003688
Fe  6.054535  4.225144  6.317916
Fe  0.127301  3.305123  0.877381
Fe  3.218219  1.715055  4.563154
%ENDBLOCK POSITIONS_ABS

