#######################################################
#CASTEP cell file: refined-structures/140-2LFP-22324-3473-5.cell
#Created using the Atomic Simulation Environment (ASE)#
#######################################################

%BLOCK LATTICE_CART
 6.546926  0.040024  0.062973
-3.300776  7.318458  0.042488
-3.300776 -3.068634  6.644179
%ENDBLOCK LATTICE_CART

%BLOCK POSITIONS_ABS
Li  0.036872  4.098641  6.122633
Li -3.236591  3.783321  6.278835
Li  0.014079 -0.990710  4.719255
Li  3.287542  4.713444  1.138089
O  3.677378 -0.046229  2.911051
O  1.662923  5.284475  1.956433
O  5.016416  0.211514  0.762712
O -0.390289 -0.126433  2.978076
O  0.403915  2.635284  1.162565
O -1.610540 -0.492215  5.583701
O  1.742953  0.580749  0.483833
O  2.883174  2.770044  1.181377
O -3.527095  1.946271  5.730553
O  0.493000  2.246199  6.082548
O  1.504218  1.755836  3.786711
O  1.491753 -0.042917  5.566019
O -0.253632  4.382158  4.226589
O -2.780464  4.533495  4.584613
O -1.769245  2.663028  3.165924
O -1.781710  5.037689  2.292749
P  4.953749 -0.513953  2.147021
P  1.680286  2.142106  0.414713
P  1.611710  1.496325  5.342061
P -1.661753  4.181421  3.591297
Fe  1.154057  3.573561  2.937521
Fe -2.119406  1.122443  4.451165
Fe  1.658293 -0.098171  2.568091
Fe -1.615171  2.346820  0.969930
%ENDBLOCK POSITIONS_ABS

