#######################################################
#CASTEP cell file: refined-structures/142-2LFP_REF-mp-26791.cell
#Created using the Atomic Simulation Environment (ASE)#
#######################################################

%BLOCK LATTICE_CART
11.418365  0.000000  0.000000
 0.000000  6.028549  0.000000
 0.000000  0.000000  5.042546
%ENDBLOCK LATTICE_CART

%BLOCK POSITIONS_ABS
Li  0.717019  1.286744  4.999871
Li 10.701346  4.741799  2.478598
Li  6.426202  1.727524  4.999871
Li  4.992163  4.301018  2.478598
O  0.934996  4.306559  1.534259
O  9.593662  0.354553  2.117302
O  9.738102  2.929839  1.969634
O 10.483369  1.721984  4.055531
O  0.427553  1.463269  1.922223
O  4.774186  1.292285  4.055531
O  1.680263  3.098703  4.490907
O  7.533885  3.368828  4.638575
O  3.884480  2.659715  2.117302
O  4.028919  0.084429  1.969634
O 10.990812  4.565274  4.443496
O  5.281630  4.477543  4.443496
O  6.136736  1.550999  1.922223
O  6.644179  4.736258  1.534259
O  7.389446  5.944114  4.490907
O  1.824703  5.673989  4.638575
P  1.007682  4.400911  5.028930
P  4.701501  1.386637  2.507657
P  6.716864  4.641906  5.028930
P 10.410683  1.627632  2.507657
Fe  9.506614  3.248455  4.972449
Fe  7.620933  0.234181  2.451176
Fe  3.797432  5.794362  4.972449
Fe  1.911751  2.780088  2.451176
%ENDBLOCK POSITIONS_ABS

