#######################################################
#CASTEP cell file: refined-structures/143-LFP-18498-6358-3.cell
#Created using the Atomic Simulation Environment (ASE)#
#######################################################

%BLOCK LATTICE_CART
 5.371684  0.045854  0.032436
 1.718882  5.428836 -0.068697
 0.344403  0.491683  5.463645
%ENDBLOCK LATTICE_CART

%BLOCK POSITIONS_ABS
Li  2.527672  3.260155  0.902893
Li  4.907297  2.706218  4.524492
O  2.079356  2.024610  2.297657
O  1.128314  1.222366  4.507934
O  3.689821  1.277353  4.117160
O  2.464766  3.385962  4.445584
O  5.355612  3.941763  3.129728
O  6.306654  4.744007  0.919451
O  3.745148  4.689020  1.310225
O  4.970203  2.580410  0.981800
P  2.337839  1.956876  3.816335
P  5.097130  4.009496  1.611050
Fe  6.655409  5.120927  4.203625
Fe  0.779559  0.845446  1.223759
%ENDBLOCK POSITIONS_ABS

