#######################################################
#CASTEP cell file: refined-structures/146-LFP-791-241-19.cell
#Created using the Atomic Simulation Environment (ASE)#
#######################################################

%BLOCK LATTICE_CART
 6.012005 -0.221018 -0.041967
 2.007155  5.540264 -0.144694
 3.297541  2.568280  4.793308
%ENDBLOCK LATTICE_CART

%BLOCK POSITIONS_ABS
Li  6.473738  4.277078  1.297789
Li  4.842963  3.610449  3.308857
O  3.347061  5.890858  1.319269
O  7.126493  7.312039  3.914404
O  4.575404  3.615152  1.287599
O  2.143607  3.709818  0.773899
O  7.969640  1.996669  3.287377
O  4.190207  0.575488  0.692241
O  6.741297  4.272374  3.319047
O  9.173094  4.177709  3.832747
P  3.474505  4.498008  0.620446
P  7.842196  3.389518  3.986200
Fe  2.849852  1.889016  1.466414
Fe  8.466849  5.998511  3.140232
%ENDBLOCK POSITIONS_ABS

