#######################################################
#CASTEP cell file: refined-structures/147-2LFP-9122-6374-3.cell
#Created using the Atomic Simulation Environment (ASE)#
#######################################################

%BLOCK LATTICE_CART
 4.955662  0.000000  0.000000
 0.000000  8.978975  0.045449
 0.000000 -5.677196  8.257777
%ENDBLOCK LATTICE_CART

%BLOCK POSITIONS_ABS
Li  3.043081  4.520200  3.241298
Li  0.565250  3.271067  5.084652
Li  1.912581 -1.218420  5.061927
Li  4.390413  0.030712  3.218574
O  3.936676  4.455968  4.982660
O  2.066600  3.621244  6.552916
O  4.007741 -3.986694  7.408227
O  2.203990 -2.933420  5.963419
O  1.458844  3.335298  3.343290
O  4.544431  4.170023  1.773035
O  1.529909  2.798986  0.872274
O  4.681821  1.745712  2.317082
O  1.018987 -1.154189  3.320566
O  2.889062 -0.319465  1.750310
O  0.947922  7.288474  0.894999
O  2.751673  6.235200  2.339807
O  3.496818 -0.033519  4.959935
O  0.411231 -0.868244  6.530191
O  3.425753  0.502793  7.430952
O  0.273842  1.556067  5.986144
P  3.054790  4.758819  6.183768
P  0.576959  3.032448  2.142182
P  1.900873 -1.457040  2.119458
P  4.378704  0.269332  6.161043
Fe  0.640016 -2.734115  7.282221
Fe  3.117847  1.546407  0.998280
Fe  4.315646  6.035894  1.021005
Fe  1.837815  1.755372  7.304946
%ENDBLOCK POSITIONS_ABS

