#######################################################
#CASTEP cell file: refined-structures/148-2LFP-13214-1054-6.cell
#Created using the Atomic Simulation Environment (ASE)#
#######################################################

%BLOCK LATTICE_CART
 6.478385  0.083647 -0.070340
-3.610472  5.379680  0.070340
-1.446281 -2.725190  8.292189
%ENDBLOCK LATTICE_CART

%BLOCK POSITIONS_ABS
Li -0.254831  2.698757  0.704517
Li  0.919716 -1.402209  7.587672
Li  4.886254  0.000097  3.408248
Li  2.257094  1.380247  4.813601
O  1.286429  1.889671  6.393711
O  1.739868  0.214765  8.272169
O -2.983751  0.646944  6.538651
O -3.556023  2.384065  8.342578
O  5.856821 -0.509515  1.828138
O  0.610256  4.292146  0.020020
O  3.648696  0.649716  1.753538
O  5.403484  1.165270 -0.050388
O  1.440762 -0.239067  4.130312
O  1.893449 -1.913224  6.009450
O -0.314486 -0.754268  5.933908
O -3.352110  2.888177  4.200710
O  0.406598  3.788209  4.161877
O -1.228458  3.209984  2.282740
O  0.979425  2.050905  2.358281
O -0.775791  1.535760  4.161820
P  2.354215  1.329094  7.393664
P  4.788999  0.050981  0.828185
P  0.826120 -1.352980  5.009066
P -0.161154  2.649681  3.283123
Fe  3.068100  2.784894  2.055220
Fe -0.896604  1.381721  6.236969
Fe  1.561152 -0.084900  2.055079
Fe  4.075590 -1.404817  6.166770
%ENDBLOCK POSITIONS_ABS

