#######################################################
#CASTEP cell file: refined-structures/150-2LFP-20246-7083-6.cell
#Created using the Atomic Simulation Environment (ASE)#
#######################################################

%BLOCK LATTICE_CART
 6.473981 -0.105207 -0.102310
 3.615264  5.371533 -0.102310
 5.072349  2.647636  8.182804
%ENDBLOCK LATTICE_CART

%BLOCK POSITIONS_ABS
Li  4.355178  2.274625  4.580132
Li  1.820098  0.948710  0.488730
Li 11.780533  6.148967  5.763006
Li  9.244220  4.825413  1.671604
O 13.056690  6.813706  7.430876
O  7.413972  2.434649  1.052657
O  6.237683  4.688264  1.051833
O 10.843235  5.658645  7.360548
O 10.519243  5.492325  3.339474
O  8.772637  6.014344  5.144059
O  9.948989  3.760762  5.143235
O  8.306039  4.336783  3.269146
O  3.661121  3.344405  1.112626
O  5.304269  2.768158  2.985847
O  3.091952  1.613356  2.920680
O  4.836409  1.091245  1.111675
O  7.373280  2.415268  5.204028
O  7.840005  4.092815  7.077249
O  5.627664  2.938060  7.012082
O  6.196729  4.667769  5.203077
P  6.844381  3.570764  0.172209
P  9.379057  4.897453  4.263611
P  4.231085  2.208119  1.992380
P  6.766933  3.532563  6.083782
Fe  8.665380  6.175855  7.220696
Fe  7.485153  2.254308  3.129294
Fe 10.017422  3.575727  7.218802
Fe  6.125005  4.850204  3.127400
%ENDBLOCK POSITIONS_ABS

