#######################################################
#CASTEP cell file: refined-structures/152-LFP-23067-6668-11.cell
#Created using the Atomic Simulation Environment (ASE)#
#######################################################

%BLOCK LATTICE_CART
 4.999191 -0.012020 -0.004958
 1.834970  5.637772 -0.069702
 1.829628  2.336889  5.131820
%ENDBLOCK LATTICE_CART

%BLOCK POSITIONS_ABS
Li  5.494792  5.435945  1.628835
Li  3.168997  2.526695  3.428325
O  3.353967  5.609365  1.737014
O  2.612613  3.152958  1.683959
O  4.444511  6.853011  4.666341
O  4.831367  3.913346  0.660940
O  5.309822  2.353275  3.320146
O  6.051176  4.809683  3.373201
O  4.219278  1.109630  0.390819
O  3.832422  4.049294  4.396220
P  3.322333  4.271323  0.887009
P  5.341456  3.691317  4.170150
Fe  7.745443  5.928444  3.858623
Fe  0.918346  2.034197  1.198537
%ENDBLOCK POSITIONS_ABS

