#######################################################
#CASTEP cell file: refined-structures/156-2LFP-11213-7340-1.cell
#Created using the Atomic Simulation Environment (ASE)#
#######################################################

%BLOCK LATTICE_CART
 5.141833  0.000000  0.000000
 0.000000  8.578935  0.000000
 0.000000  0.000000  9.033679
%ENDBLOCK LATTICE_CART

%BLOCK POSITIONS_ABS
Li  4.277994  7.411360  0.936936
Li  0.863839  3.121892  3.579904
Li  1.707078  5.457043  8.096744
Li  3.434755  1.167575  5.453775
O  0.470548  6.193706  6.736652
O  3.908274  7.480113  8.098800
O  3.877654  7.666127  5.569814
O  3.164088  5.512991  6.715170
O  4.671285  1.904238  6.813867
O  1.233559  3.190645  5.451719
O  1.264180  3.376659  7.980704
O  1.977746  1.223524  6.835348
O  3.041465  6.674698  2.297027
O  1.337358  5.388290  0.934879
O  1.306737  5.202276  3.463865
O  0.593171  7.355412  2.318509
O  2.100368  2.385230  2.219813
O  3.804475  1.098823  3.581960
O  3.835096  0.912808  1.052975
O  4.548662  3.065944  2.198331
P  4.158828  6.709059  6.774386
P  0.983005  2.419591  6.776133
P  1.587912  6.159345  2.259293
P  3.553921  1.869877  2.257546
Fe  0.882402  3.359862  0.889061
Fe  4.259432  7.649330  3.627778
Fe  3.453318  0.929605  8.144618
Fe  1.688515  5.219073  5.405901
%ENDBLOCK POSITIONS_ABS

