#######################################################
#CASTEP cell file: refined-structures/158-2LFP-11213-7340-1.cell
#Created using the Atomic Simulation Environment (ASE)#
#######################################################

%BLOCK LATTICE_CART
 5.127237  0.000000  0.000000
 0.000000  8.520164  0.000000
 0.000000  0.000000  9.028997
%ENDBLOCK LATTICE_CART

%BLOCK POSITIONS_ABS
Li  4.304391  7.358923  0.936838
Li  0.822845  3.098841  3.577660
Li  1.740773  5.421323  8.092159
Li  3.386463  1.161241  5.451337
O  0.518559  6.172502  6.730399
O  3.913158  7.421711  8.097544
O  3.882190  7.614639  5.568539
O  3.207153  5.447012  6.707409
O  4.608677  1.912420  6.813097
O  1.214078  3.161629  5.445951
O  1.245047  3.354557  7.974957
O  1.920084  1.186930  6.836086
O  3.082177  6.607744  2.298598
O  1.349540  5.358534  0.931453
O  1.318571  5.165607  3.460458
O  0.643534  7.333234  2.321588
O  2.045059  2.347662  2.215900
O  3.777696  1.098453  3.583046
O  3.808665  0.905525  1.054040
O  4.483702  3.073152  2.192911
P  4.183400  6.659882  6.771494
P  0.943836  2.399800  6.772002
P  1.619782  6.120364  2.257503
P  3.507455  1.860282  2.256995
Fe  0.833917  3.341506  0.882327
Fe  4.293320  7.601588  3.632171
Fe  3.397535  0.918576  8.146670
Fe  1.729702  5.178658  5.396826
%ENDBLOCK POSITIONS_ABS

