#######################################################
#CASTEP cell file: refined-structures/160-2LFP-11577-2798-9.cell
#Created using the Atomic Simulation Environment (ASE)#
#######################################################

%BLOCK LATTICE_CART
 6.671780  0.000000  0.000000
 0.000000  7.426799  0.000000
 0.000000  0.000000  7.019513
%ENDBLOCK LATTICE_CART

%BLOCK POSITIONS_ABS
Li  0.153042  1.721707  6.308743
Li  3.182848  5.435107  0.710769
Li  6.518738  1.991692  2.798987
Li  3.488931  5.705092  4.220526
O  3.710494  7.292051  0.305787
O  4.947253  1.219002  5.556112
O  6.290767  7.322085  0.155862
O  4.926361  6.077630  5.447855
O  6.297175  3.578651  6.713726
O  5.060416  4.932402  1.463400
O  3.716902  3.608686  6.863650
O  5.081309  2.364230  1.571658
O  2.961286  3.848149  3.815543
O  1.724526  2.494398  2.046356
O  0.381012  3.818114  3.665619
O  1.745419  5.062569  1.938098
O  0.374604  0.134749  3.203970
O  1.611363  6.207797  4.973157
O  2.954878  0.104714  3.353894
O  1.590471  1.349169  5.081414
P  4.950926  7.328719  6.377827
P  5.056743  3.615320  0.641686
P  1.720853  3.811480  2.868070
P  1.615037  0.098080  4.151443
Fe  6.657222  6.136187  1.794497
Fe  3.350447  2.422788  5.225016
Fe  0.014557  5.004012  5.304253
Fe  3.321333  1.290612  1.715259
%ENDBLOCK POSITIONS_ABS

