#######################################################
#CASTEP cell file: refined-structures/161-2LFP-19934-8797-5.cell
#Created using the Atomic Simulation Environment (ASE)#
#######################################################

%BLOCK LATTICE_CART
 5.485518  0.000000  0.000000
 0.000000  7.871892  0.000000
 0.000000  0.000000  8.185370
%ENDBLOCK LATTICE_CART

%BLOCK POSITIONS_ABS
Li  1.248398  2.368408  4.750905
Li  4.237120  5.503483  0.658220
Li  4.237120  6.304354  4.750905
Li  1.248398  1.567537  0.658220
O  1.285194  0.426017  4.850681
O  1.113784  0.508837  2.330966
O  3.152201  7.288606  3.459039
O  0.859048  6.181050  3.591812
O  4.200324  7.445875  0.757996
O  4.371733  7.363055  6.423651
O  2.333317  0.583285  7.551725
O  4.626470  1.690841  7.684497
O  4.200324  4.361963  4.850681
O  4.371733  4.444782  2.330966
O  2.333317  3.352661  3.459039
O  4.626470  2.245104  3.591812
O  1.285194  3.509929  0.757996
O  1.113784  3.427109  6.423651
O  3.152201  4.519231  7.551725
O  0.859048  5.626787  7.684497
P  1.623088  7.534645  3.532589
P  3.862429  0.337247  7.625274
P  3.862429  3.598699  3.532589
P  1.623088  4.273192  7.625274
Fe  0.970194  7.307311  6.592836
Fe  4.515324  0.564580  2.500151
Fe  4.515324  3.371366  6.592836
Fe  0.970194  4.500526  2.500151
%ENDBLOCK POSITIONS_ABS

