#######################################################
#CASTEP cell file: refined-structures/162-2LFP-23231-2013-1.cell
#Created using the Atomic Simulation Environment (ASE)#
#######################################################

%BLOCK LATTICE_CART
 5.048889  0.000000  0.000000
 0.000000  7.366878  0.160269
 0.000000 -0.332368  9.339052
%ENDBLOCK LATTICE_CART

%BLOCK POSITIONS_ABS
Li  2.711281  0.768323  0.126947
Li  2.337608  0.602140  4.796473
Li  0.016433  0.513078  6.888761
Li  5.032455  0.679262  2.219235
O  0.609359  7.114985  5.313359
O  3.284875  6.306472  5.439264
O  4.472454  6.309405  3.231155
O  0.229867  4.690934  5.100298
O  4.439530  7.281169  0.643833
O  1.764013  6.472656  0.769738
O  0.576435  6.143221  7.900681
O  4.819022  4.857117  0.430772
O  1.388636  2.219019  0.948423
O  3.637382  2.088342  1.974935
O  2.173290  4.095415  2.570942
O  1.500814  1.812317  3.418225
O  3.660252  2.052835  5.617949
O  1.411506  1.922158  6.644460
O  2.875598  3.929231  7.240468
O  3.548075  1.646133  8.087751
P  4.650534  6.084503  4.746924
P  0.398354  5.918319  9.416450
P  2.190732  2.607460  2.237232
P  2.858157  2.441276  6.906758
Fe  3.274629  5.579852  1.756322
Fe  1.774260  5.413668  6.425848
Fe  0.385261  2.683344  4.893888
Fe  4.663628  2.849528  0.224362
%ENDBLOCK POSITIONS_ABS

