#######################################################
#CASTEP cell file: refined-structures/163-2LFP_REF-mp-757019.cell
#Created using the Atomic Simulation Environment (ASE)#
#######################################################

%BLOCK LATTICE_CART
10.339880  0.000000  0.000000
 0.000000  6.248656  0.000000
 0.000000  0.000000  4.793003
%ENDBLOCK LATTICE_CART

%BLOCK POSITIONS_ABS
Li  2.182224  4.686492  2.370180
Li  2.987716  1.562164  4.766682
Li  7.352164  4.686492  0.026321
Li  8.157656  1.562164  2.422823
O  0.468457  4.686492  3.413259
O  0.900980  1.562164  3.582766
O  1.664562  0.286236  1.458439
O  1.664562  2.838092  1.458439
O  3.505378  5.962420  3.854941
O  3.505378  3.410564  3.854941
O  4.268960  4.686492  1.186264
O  4.701483  1.562164  1.016757
O  5.638397  4.686492  3.776246
O  6.070920  1.562164  3.606739
O  6.834502  0.286236  0.938063
O  6.834502  2.838092  0.938063
O  8.675319  3.410564  3.334564
O  8.675319  5.962420  3.334564
O  9.438900  4.686492  1.210237
O  9.871424  1.562164  1.379745
P  0.995397  1.562164  2.020441
P  4.174543  4.686492  4.416943
P  6.165338  1.562164  0.376061
P  9.344483  4.686492  2.772563
Fe  0.000000  0.000000  0.000000
Fe  0.000000  3.124328  0.000000
Fe  5.169940  0.000000  2.396502
Fe  5.169940  3.124328  2.396502
%ENDBLOCK POSITIONS_ABS

