#######################################################
#CASTEP cell file: refined-structures/164-2LFP-12032-8430-2.cell
#Created using the Atomic Simulation Environment (ASE)#
#######################################################

%BLOCK LATTICE_CART
 6.308785  0.000000  0.000000
 0.000000  5.884031  0.000000
 0.000000  0.000000  8.156014
%ENDBLOCK LATTICE_CART

%BLOCK POSITIONS_ABS
Li  5.156274  4.025196  2.035717
Li  2.001881  1.858835  6.120297
Li  5.156274  1.858835  6.113724
Li  2.001881  4.025196  2.042290
O  5.463574  4.388291  3.978201
O  0.408247  5.703187  5.766519
O  0.413725  3.201188  5.878414
O  1.669269  4.392978  3.979977
O  2.309182  1.495740  4.177813
O  3.562639  0.180844  2.389495
O  3.568118  2.682843  2.277600
O  4.823662  1.491053  4.176037
O  5.463574  1.495740  8.056208
O  0.408247  0.180844  1.688512
O  0.413725  2.682843  1.800407
O  1.669269  1.491053  8.057984
O  2.309182  4.388291  0.099806
O  3.562639  5.703187  6.467502
O  3.568118  3.201188  6.355607
O  4.823662  4.392978  0.098030
P  0.411781  4.413461  4.891279
P  3.566173  1.470570  3.264735
P  0.411781  1.470570  0.813272
P  3.566173  4.413461  7.342742
Fe  0.412789  4.623958  7.649391
Fe  3.567181  1.260073  0.506623
Fe  0.412789  1.260073  3.571384
Fe  3.567181  4.623958  4.584630
%ENDBLOCK POSITIONS_ABS

