#######################################################
#CASTEP cell file: refined-structures/165-2LFP-12155-5886-6.cell
#Created using the Atomic Simulation Environment (ASE)#
#######################################################

%BLOCK LATTICE_CART
 4.831950  0.000000  0.093056
 0.000000  6.350517  0.000000
-6.642477  0.000000 10.080802
%ENDBLOCK LATTICE_CART

%BLOCK POSITIONS_ABS
Li  0.715470  1.618921  6.125064
Li  4.036709  4.731596  1.084663
Li  0.744965  4.874679  5.994788
Li  4.066204  1.475838  0.954387
O -4.124982  1.825419  9.993968
O -5.350161  3.192473  8.241477
O  0.417735  3.094212  0.577086
O -4.094387  4.372756 10.060415
O -0.803743  4.525098  4.953567
O -2.028922  3.158044  3.201075
O -2.903503  3.256305  5.617487
O -0.773148  1.977761  5.020014
O  2.633603  6.317605  2.209962
O  0.392788  1.125547  2.738378
O  0.593945  6.300195  0.536435
O  0.445084  5.030764  2.673022
O -0.687636  0.032912  7.250363
O -2.928451  5.224970  7.778779
O -2.727294  0.050323  5.576836
O -2.876154  1.319753  7.713423
P -4.947461  3.114431  9.740077
P -1.626222  3.236086  4.699676
P  1.105039  6.273447  2.016022
P -2.216200  0.077070  7.056423
Fe  0.898425  3.080507  2.673759
Fe -2.422814  3.270010  7.714160
Fe -4.529974  6.263509  9.086776
Fe -1.208735  0.087008  4.046375
%ENDBLOCK POSITIONS_ABS

