#######################################################
#CASTEP cell file: refined-structures/166-2LFP-11665-2192-4.cell
#Created using the Atomic Simulation Environment (ASE)#
#######################################################

%BLOCK LATTICE_CART
 5.627667  0.000000  0.000000
 2.813834  5.466979  0.129260
 2.813834  0.701788  9.885455
%ENDBLOCK LATTICE_CART

%BLOCK POSITIONS_ABS
Li  3.523030  2.528796  7.393945
Li  7.732306  4.911391  2.515848
Li  6.581216  0.862124  6.785699
Li  4.674120  3.244720  1.907601
O  4.825638  5.067802  5.491595
O  3.651783  4.244665  3.332255
O  3.607938  2.854624  5.491812
O  7.890852  4.999098  5.344822
O  3.615864  1.983419  0.484238
O  7.603553  1.862069  8.210352
O  7.647398  5.237220  0.613715
O  6.178317  1.914715  0.337465
O  2.052458  1.466567  3.153986
O  6.378614  3.640081  2.988233
O  5.119459  1.475112  3.143481
O  6.434814  2.255460  5.182389
O  6.389044  4.550950  8.161344
O  4.876727  1.257485  7.866330
O  8.949705  4.559495  8.150838
O  4.820522  4.638055  0.304292
P  3.593987  4.278251  4.855860
P  7.661349  1.895656  9.733957
P  6.386140  2.250281  3.627910
P  7.683036  5.334664  8.635267
Fe  3.596757  0.983822  4.503009
Fe  4.844746  4.068206  9.510366
Fe  2.060336  0.788625  1.286954
Fe  6.381166  3.873008  6.294312
%ENDBLOCK POSITIONS_ABS

