#######################################################
#CASTEP cell file: refined-structures/167-2LFP-11212-7612-7.cell
#Created using the Atomic Simulation Environment (ASE)#
#######################################################

%BLOCK LATTICE_CART
 4.859931  0.000000  0.000000
 0.000000  7.516539  0.000000
 0.000000  0.000000  9.505377
%ENDBLOCK LATTICE_CART

%BLOCK POSITIONS_ABS
Li  1.335001  0.115237  2.981214
Li  1.335001  7.401302  6.524163
Li  3.764966  3.873507  1.771475
Li  3.764966  3.643032  7.733902
O  3.216972  1.108148  3.314324
O  0.168797  0.769956  1.515145
O  2.637193  7.276746  1.363502
O  3.032397  2.239205  1.019879
O  3.216972  6.408391  6.191053
O  0.168797  6.746583  7.990231
O  2.637193  0.239793  8.141874
O  3.032397  5.277334  8.485498
O  0.787006  4.866418  1.438364
O  2.598763  4.528225  3.237543
O  0.207227  3.518476  3.389186
O  0.602431  5.997475  3.732809
O  0.787006  2.650121  8.067012
O  2.598763  2.988314  6.267834
O  0.207227  3.998063  6.116191
O  0.602431  1.519064  5.772567
P  3.515424  0.967935  1.792689
P  3.515424  6.548604  7.712687
P  1.085459  4.726205  2.959999
P  1.085459  2.790334  6.545378
Fe  1.436494  6.116804  0.020083
Fe  1.436494  1.399735  9.485293
Fe  3.866459  2.358534  4.732605
Fe  3.866459  5.158005  4.772772
%ENDBLOCK POSITIONS_ABS

