#######################################################
#CASTEP cell file: refined-structures/168-2LFP-11212-7612-7.cell
#Created using the Atomic Simulation Environment (ASE)#
#######################################################

%BLOCK LATTICE_CART
 4.860364  0.000000  0.000000
 0.000000  7.517053  0.000000
 0.000000  0.000000  9.504227
%ENDBLOCK LATTICE_CART

%BLOCK POSITIONS_ABS
Li  1.335093  0.115506  2.980341
Li  1.335093  7.401547  6.523886
Li  3.765275  3.874032  1.771772
Li  3.765275  3.643020  7.732455
O  3.216737  1.108272  3.314502
O  0.169046  0.770849  1.514734
O  2.637239  7.277177  1.363745
O  3.032890  2.240047  1.019567
O  3.216737  6.408780  6.189725
O  0.169046  6.746204  7.989493
O  2.637239  0.239876  8.140482
O  3.032890  5.277005  8.484660
O  0.786555  4.866798  1.437612
O  2.599228  4.529375  3.237380
O  0.207057  3.518651  3.388368
O  0.602708  5.998573  3.732546
O  0.786555  2.650254  8.066615
O  2.599228  2.987678  6.266847
O  0.207057  3.998402  6.115859
O  0.602708  1.518479  5.771681
P  3.515886  0.967948  1.792263
P  3.515886  6.549105  7.711964
P  1.085704  4.726474  2.959851
P  1.085704  2.790578  6.544376
Fe  1.436754  6.116504  0.020901
Fe  1.436754  1.400548  9.483326
Fe  3.866936  2.357978  4.731212
Fe  3.866936  5.159074  4.773015
%ENDBLOCK POSITIONS_ABS

