#######################################################
#CASTEP cell file: refined_structures-pbe/000-2LiFeSO4F-200804-034722-678938.cell
#Created using the Atomic Simulation Environment (ASE)#
#######################################################

%BLOCK LATTICE_CART
 4.629082  0.000000  0.049608
 0.000000  6.254302  0.000000
-4.235862  0.000000  7.133171
%ENDBLOCK LATTICE_CART

%BLOCK POSITIONS_ABS
Li -2.194722  4.231830  5.711187
Li  2.587942  1.104679  1.471591
O -2.990123  2.345642  5.095130
O -1.034603  1.108433  4.365062
O -2.986289  6.130414  5.109480
O -1.652462  1.124873  6.715763
O  3.383343  5.472793  2.087649
O  1.427823  4.235584  2.817716
O  3.379509  3.003263  2.073299
O  2.045682  4.252024  0.467015
F  0.950343  1.106789  2.427186
F -0.557123  4.233940  4.755593
S -2.179491  1.113220  5.365189
S  2.572710  4.240371  1.817589
Fe  0.199542  5.797763  3.599227
Fe  0.193678  2.670613  3.583552
%ENDBLOCK POSITIONS_ABS

