#######################################################
#CASTEP cell file: refined_structures-pbe/001-4LiFeSO4F-200804-074522-8932e9.cell
#Created using the Atomic Simulation Environment (ASE)#
#######################################################

%BLOCK LATTICE_CART
 6.225643  0.000000  0.000000
 0.000000  4.669026  0.000000
 0.000000  0.000000 14.352648
%ENDBLOCK LATTICE_CART

%BLOCK POSITIONS_ABS
Li  1.572056  2.343606 12.898644
Li  4.653587  2.343606  1.454004
Li  4.684878  2.325419  8.630328
Li  1.540766  2.325419  5.722320
O  1.548769  1.922115  0.395494
O  1.538656  1.196493  2.717685
O  0.302267  3.177971  2.061652
O  2.781223  3.176511  2.069555
O  4.676875  1.922115 13.957154
O  4.686987  1.196493 11.634964
O  5.923377  3.177971 12.290997
O  3.444420  3.176511 12.283093
O  4.661590  2.746911  6.780830
O  4.651478  3.472533  4.458639
O  3.415088  1.491055  5.114672
O  5.894045  1.492515  5.106769
O  1.564053  2.746911  7.571818
O  1.574165  3.472533  9.894009
O  2.810555  1.491055  9.237976
O  0.331598  1.492515  9.245879
F  1.576008  0.719599 11.925810
F  4.649635  0.719599  2.426839
F  4.688830  3.949427  9.603163
F  1.536814  3.949427  4.749486
S  1.542434  2.383126  1.771154
S  4.683210  2.383126 12.581495
S  4.655255  2.285900  5.405171
S  1.570388  2.285900  8.947478
Fe  6.205907 -0.000049  3.586658
Fe  0.019736 -0.000049 10.765991
Fe  3.093085  0.000049  3.589666
Fe  3.132558  0.000049 10.762982
%ENDBLOCK POSITIONS_ABS

