#######################################################
#CASTEP cell file: refined_structures-pbe/002-4LiFeSO4F-200804-070941-02f116.cell
#Created using the Atomic Simulation Environment (ASE)#
#######################################################

%BLOCK LATTICE_CART
 7.697844  0.000000  0.000000
 0.000000  8.054068  0.000000
 0.000000  0.000000  6.288927
%ENDBLOCK LATTICE_CART

%BLOCK POSITIONS_ABS
Li  0.886832  5.203851  0.139296
Li  6.811013  2.850216  3.283760
Li  2.962091  1.176817  0.139296
Li  4.735754  6.877250  3.283760
O  0.972497  6.187558  2.051269
O  2.735915  5.056072  3.283505
O  0.491526  4.144366  3.285416
O  0.973917  6.188710  4.516503
O  6.725348  1.866510  5.195733
O  4.961929  2.997996  0.139042
O  7.206318  3.909702  0.140952
O  6.723927  1.865358  1.372039
O  2.876426  2.160524  2.051269
O  1.113007  1.029038  3.283505
O  3.357396  0.117332  3.285416
O  2.875005  2.161676  4.516503
O  4.821419  5.893544  5.195733
O  6.584837  7.025030  0.139042
O  4.340448  7.936736  0.140952
O  4.822840  5.892392  1.372039
F  2.529552  4.328628  0.139543
F  5.168292  3.725440  3.284006
F  1.319370  0.301594  0.139543
F  6.378475  7.752473  3.284006
S  1.248603  5.380872  3.284178
S  6.449242  2.673195  0.139714
S  2.600319  1.353838  3.284178
S  5.097525  6.700229  0.139714
Fe  0.000101  0.000367  4.856098
Fe  7.697744  8.053701  1.711634
Fe  3.848822  4.027400  4.856098
Fe  3.849023  4.026667  1.711634
%ENDBLOCK POSITIONS_ABS

