#######################################################
#CASTEP cell file: refined_structures-pbe/003-4LiFeSO4F-200804-063655-9d6304.cell
#Created using the Atomic Simulation Environment (ASE)#
#######################################################

%BLOCK LATTICE_CART
 7.807242  0.000000  0.000000
 0.000000  7.585139  0.097228
 0.000000 -0.079805  6.414575
%ENDBLOCK LATTICE_CART

%BLOCK POSITIONS_ABS
Li  4.485392  2.053155  2.499387
Li  3.321851  5.845724  2.548000
Li  0.599527  3.711630  5.783542
Li  7.207715 -0.080939  5.734928
O  6.318213  6.233891  2.622534
O  6.104891  1.078153  2.537003
O  0.096928 -0.002909  1.294505
O  0.118052 -0.000750  3.746932
O  1.489029  2.441321  2.573920
O  1.702351  4.870722  2.585617
O  7.710314  3.789660  1.343119
O  7.689190  3.791819  3.795546
O  4.036062  5.769718  4.538087
O  2.418196  7.109286  5.761266
O  4.016323  5.852282  0.575899
O  2.223980  4.677419  5.749444
O  3.771180  1.977148  4.489473
O  5.389046  3.316716  5.712652
O  3.790919  2.059712  0.527285
O  5.583262  0.884850  5.700830
F  2.927284  0.141353  2.447814
F  4.879958  3.933922  2.496428
F  0.966638  1.823451  5.788801
F  6.840604  5.616020  5.837415
S  7.049442 -0.022675  2.522656
S  0.757800  3.769895  2.571270
S  3.159694  5.785742  5.762780
S  4.647548  1.993173  5.714166
Fe  1.947855  0.980761  4.118702
Fe  5.859387  4.773330  4.167316
Fe  1.947468  1.023124  0.910733
Fe  5.859774  4.815694  0.959347
%ENDBLOCK POSITIONS_ABS

