#######################################################
#CASTEP cell file: refined_structures-pbe/006-LiFeSO4F triplite-ordered-5.cell
#Created using the Atomic Simulation Environment (ASE)#
#######################################################

%BLOCK LATTICE_CART
 0.000000 -6.523307  0.000000
-6.508165 -3.261653 -0.096197
-1.754977 -3.261653 -8.663995
%ENDBLOCK LATTICE_CART

%BLOCK POSITIONS_ABS
Li -7.580258 -8.078132 -8.589754
Li -3.448688 -8.230136 -4.209658
Li -1.448097 -5.885446 -5.553754
Li -3.824692 -7.161167 -1.269855
O -2.275263 -7.478463 -2.602060
O -1.914045 -4.228538 -1.732087
O -6.045616 -5.556422 -6.112183
O -6.406834 -8.829805 -6.982156
O -3.837812 -3.498754 -3.022627
O -0.395947 -6.786443 -1.209163
O -4.527518 -9.521824 -5.589259
O -7.969382 -6.286206 -7.402723
O -3.576290 -2.767913 -0.705002
O -7.075687 -9.258695 -3.634906
O -4.699093 -10.311226 -7.918805
O -1.199695 -3.755394 -4.988901
O -4.137222 -5.085668 -1.199904
O -6.524550 -5.023637 -3.174121
O -4.147955 -8.022977 -7.458019
O -1.760628 -7.960946 -5.483802
F -2.388101 -6.118690 -8.107890
F -3.354682 -5.564728 -5.668713
F -5.731276 -7.481885 -1.384814
F -4.764695 -6.927924 -3.823991
S -0.850480 -7.115406 -2.585882
S -3.379020 -3.907370 -1.655283
S -7.510591 -5.877590 -6.035379
S -4.982051 -9.192862 -6.965978
Fe -4.769219 -4.842194 -4.401501
Fe -0.637648 -4.942767 -0.021405
Fe -4.335318 -5.848546 -7.478696
Fe -6.711913 -7.198067 -3.194798
%ENDBLOCK POSITIONS_ABS

