#######################################################
#CASTEP cell file: refined_structures-pbe/004-4LiFeSO4F-200804-055002-9fc062.cell
#Created using the Atomic Simulation Environment (ASE)#
#######################################################

%BLOCK LATTICE_CART
 6.579008  0.000000  0.000000
 0.000000  7.351315  0.000000
 0.000000  0.000000  7.715194
%ENDBLOCK LATTICE_CART

%BLOCK POSITIONS_ABS
Li  4.844814  3.624281  5.692026
Li  5.023698 -0.051377  2.023168
Li  1.734194  0.051377  1.834429
Li  1.555310  3.727034  5.880766
O  3.313362  3.504122  4.177557
O  3.333109  3.474196  1.733232
O  2.119859  1.755733  2.954478
O  4.516080  1.750853  2.975567
O  6.555150  7.179780  3.537637
O  6.535402  7.149854  5.981962
O  1.169645  5.431391  4.760716
O  5.352432  5.426510  4.739627
O  3.265646  0.171535  0.319960
O  3.245898  0.201461  5.590829
O  4.459149  1.919924  6.812075
O  2.062928  1.924805  6.833164
O  0.023858  3.847192  7.395234
O  0.043605  3.877119  2.124365
O  5.409363  5.595582  0.903119
O  1.226576  5.600462  0.882030
F  6.551936  2.632947  5.069527
F  3.316575  6.308604  2.645667
F  0.027071  1.042711  1.211930
F  3.262433  4.718368  6.503264
S  3.320871  2.646538  2.948248
S  6.547641  6.322195  4.766946
S  3.258137  1.029120  6.805846
S  0.031367  4.704777  0.909349
Fe  3.258638  5.742290  4.594268
Fe  0.030866  2.066633  3.120926
Fe  3.320370  5.284682  0.736671
Fe  6.548142  1.609025  6.978523
%ENDBLOCK POSITIONS_ABS

