#######################################################
#CASTEP cell file: refined_structures-pbe/005-LiFeSO4F-triplite_5 RELAXED.cell
#Created using the Atomic Simulation Environment (ASE)#
#######################################################

%BLOCK LATTICE_CART
 0.000000 -6.526152  0.000000
-6.506091 -3.263076 -0.098405
-1.757359 -3.263076 -8.666525
%ENDBLOCK LATTICE_CART

%BLOCK POSITIONS_ABS
Li -7.581044 -8.077220 -8.592979
Li -3.449319 -8.238160 -4.210514
Li -1.444322 -5.887933 -5.540617
Li -3.818688 -7.164372 -1.256557
O -2.275949 -7.482257 -2.600089
O -1.915290 -4.232418 -1.733537
O -6.047015 -5.556810 -6.116002
O -6.407674 -8.833123 -6.982553
O -3.838544 -3.501896 -3.023220
O -0.394767 -6.788127 -1.212321
O -4.526492 -9.527253 -5.594786
O -7.970269 -6.287332 -7.405684
O -3.577936 -2.772791 -0.704610
O -7.076668 -9.262478 -3.638515
O -4.702302 -10.315979 -7.922575
O -1.203570 -3.753361 -4.988669
O -4.139150 -5.089879 -1.201695
O -6.524495 -5.025000 -3.180097
O -4.150129 -8.027305 -7.464157
O -1.764784 -7.962426 -5.485755
F -2.390584 -6.121672 -8.120735
F -3.351884 -5.565495 -5.676310
F -5.726249 -7.486810 -1.392250
F -4.764950 -6.930633 -3.836675
S -0.851437 -7.118763 -2.587625
S -3.379923 -3.911228 -1.655709
S -7.511648 -5.878000 -6.038173
S -4.983162 -9.196618 -6.970090
Fe -4.767366 -4.841913 -4.405320
Fe -0.635641 -4.947316 -0.022855
Fe -4.334793 -5.849652 -7.481129
Fe -6.709159 -7.202653 -3.197069
%ENDBLOCK POSITIONS_ABS

