#######################################################
#CASTEP cell file: refined_structures-pbe/007-2LiFeSO4F-200804-051350-99d823.cell
#Created using the Atomic Simulation Environment (ASE)#
#######################################################

%BLOCK LATTICE_CART
 5.395596 -0.014061 -0.030503
-0.672562  5.353533 -0.030503
 2.082960  2.354822  6.615582
%ENDBLOCK LATTICE_CART

%BLOCK POSITIONS_ABS
Li  2.564196  3.519368  3.605878
Li  4.500094  4.466934  0.267585
O  0.980809  4.722175  3.597693
O  4.998107  5.675866  1.810789
O  2.039412  5.860579  1.764974
O  1.445797  1.808951  3.419501
O  0.491584  3.056267  0.289902
O  3.703298  4.161225  5.149083
O  3.575217  6.600734  5.072765
O  2.938982  3.148118  0.081207
F  4.105744  2.953052  2.685247
F  6.505367  2.929117  5.993038
S  0.854100  5.867970  2.642445
S  3.727236  5.425188  5.950236
Fe  5.283377  2.938184  4.359411
Fe  4.263904  1.741306  1.051620
%ENDBLOCK POSITIONS_ABS

