#######################################################
#CASTEP cell file: refined_structures-pbe/009-mp-1222389.cell
#Created using the Atomic Simulation Environment (ASE)#
#######################################################

%BLOCK LATTICE_CART
 4.978949  0.007570 -1.527964
-1.200482  5.187904 -1.635991
-0.007716 -0.013235  7.389525
%ENDBLOCK LATTICE_CART

%BLOCK POSITIONS_ABS
Li  3.194846  1.925174 -0.202314
Li  0.507857  3.120300  3.910997
Fe -1.183671  5.163500  5.730072
Fe  3.754024  5.177896  0.510130
S  2.902779  1.933351  3.924089
S  0.866949  3.267655  0.318399
O  4.006971  1.813736  2.918569
O -0.222050  3.323216  1.361885
O  3.329572  1.298639  5.201968
O  0.421175  3.951535 -0.913338
O  2.558956  3.373196  4.151115
O  1.200535  1.833805  0.023892
O  1.657234  1.313103  3.403802
O  2.108032  3.871751  0.855099
F  4.267348  0.462219  0.294386
F -0.492651  4.702031  3.880948
%ENDBLOCK POSITIONS_ABS

