#######################################################
#CASTEP cell file: refined_structures-pbe/011-mp-943492.cell
#Created using the Atomic Simulation Environment (ASE)#
#######################################################

%BLOCK LATTICE_CART
 4.991629  0.029152 -1.558787
 2.470024 10.369558  2.593563
 0.009847 -0.034290  7.394933
%ENDBLOCK LATTICE_CART

%BLOCK POSITIONS_ABS
Li  5.526450  3.252607  2.852904
Li  4.270423  8.405519  8.626667
Li  3.201261  1.958778 -0.196842
Li  1.944791  7.112001  5.576641
Fe  3.730674  5.199442  0.517099
Fe -0.000091  0.000238  0.000360
Fe  0.004777 -0.017120  3.697113
Fe  3.735606  5.182160  4.214986
S  0.835055  3.246171  7.667579
S  4.560966  8.462635  4.487596
S  2.910629  1.901697  3.942053
S  6.636419  7.118421  0.762083
O  2.039763  3.921521  0.813833
O  5.775629  9.103450  5.028700
O  1.696053  1.260684  3.401180
O  5.431604  6.443109  7.615972
O  4.689855  3.387678 -0.301403
O  3.433915  8.540787  5.472524
O  4.037781  1.823682  2.957241
O  2.781620  6.976855  8.731136
O  1.193916  1.812125  7.409679
O  4.919497  7.028073  4.230087
O  2.551785  3.336123  4.199597
O  6.277663  8.552501  1.019917
O  5.407026  3.916731  4.826916
O  4.141099  9.103578  3.205635
O  3.330546  1.260735  5.223945
O  2.064350  6.447678  3.602727
F  4.434105  4.708213  2.366779
F  3.179176  9.862132  8.140347
F  4.292993  0.501921  0.289317
F  3.037180  5.656193  6.063259
%ENDBLOCK POSITIONS_ABS

