#######################################################
#CASTEP cell file: refined_structures-pbe/012-mp-943492.cell
#Created using the Atomic Simulation Environment (ASE)#
#######################################################

%BLOCK LATTICE_CART
 4.990626  0.020407 -1.563138
 2.457505 10.357388  2.624186
 0.008031 -0.015731  7.409894
%ENDBLOCK LATTICE_CART

%BLOCK POSITIONS_ABS
Li  5.521289  3.264928  2.881868
Li  4.258450  8.425657  8.680199
Li  3.197485  1.936559 -0.209528
Li  1.935189  7.096973  5.589322
Fe  3.724070  5.188884  0.530700
Fe  0.000217 -0.000257 -0.000139
Fe  0.004346 -0.007693  3.705381
Fe  3.728086  5.181010  4.235272
S  0.826046  3.264623  7.691206
S  4.546136  8.461280  4.516845
S  2.909999  1.900698  3.954146
S  6.630040  7.097370  0.779826
O  2.023325  3.927906  0.831363
O  5.751386  9.108400  5.066587
O  1.704930  1.253163  3.403964
O  5.432698  6.434407  7.639370
O  4.674781  3.374381 -0.304809
O  3.412681  8.534956  5.493695
O  4.043478  1.826883  2.977091
O  2.781206  6.987540  8.775657
O  1.191498  1.831456  7.430364
O  4.911396  7.028669  4.255992
O  2.544744  3.333565  4.215029
O  6.264955  8.530575  1.040873
O  5.401174  3.924149  4.842562
O  4.130767  9.100382  3.231735
O  3.325484  1.261859  5.239529
O  2.054936  6.438059  3.628559
F  4.417395  4.702598  2.384264
F  3.154413  9.863361  8.183400
F  4.300977  0.499244  0.287751
F  3.038884  5.659389  6.086055
%ENDBLOCK POSITIONS_ABS

