#######################################################
#CASTEP cell file: refined_structures-pbe/013-2LiFeSO4F-200804-014737-2921ed.cell
#Created using the Atomic Simulation Environment (ASE)#
#######################################################

%BLOCK LATTICE_CART
 5.223354  0.038318 -0.009828
-1.133256  6.181033  0.047181
-2.371399 -3.689169  5.817047
%ENDBLOCK LATTICE_CART

%BLOCK POSITIONS_ABS
Li -0.183266 -0.612921  4.434264
Li  1.901965  3.143104  1.420136
O  0.860908 -0.145875  1.016991
O  1.547404  0.061306  3.344445
O  2.780255  1.239866  1.603394
O  1.823004  5.014095  1.820829
O  0.857792  2.676057  4.837409
O  0.171295  2.468876  2.509956
O -1.061556  1.290316  4.251006
O -0.104305 -2.483913  4.033571
F  3.391461  3.378521  0.136785
F -1.672761 -0.848339  5.717615
S  2.059022 -0.036997  1.957555
S -0.340323  2.567179  3.896845
Fe -0.601761  1.492551  0.665910
Fe  2.320461  1.037631  5.188490
%ENDBLOCK POSITIONS_ABS

