#######################################################
#CASTEP cell file: refined_structures-pbe/014-2LiFeSO4F-200804-035858-0983ac.cell
#Created using the Atomic Simulation Environment (ASE)#
#######################################################

%BLOCK LATTICE_CART
 6.247218  0.176393  0.623887
-3.279537  6.464704 -0.600294
 1.886886 -3.943696  4.950426
%ENDBLOCK LATTICE_CART

%BLOCK POSITIONS_ABS
Li -0.735139  2.549269  1.595536
Li  5.589706  0.148133  3.378484
O  1.338434  2.509095  1.253472
O  2.129621  3.107760  3.481725
O  2.141074  4.764978  1.700576
O  3.701622  2.888475  1.615196
O  3.516133  0.188306  3.720547
O  2.724946 -0.410358  1.492295
O  2.713493 -2.067576  3.273444
O  1.152945 -0.191073  3.358823
F -0.809635  1.833785  3.422242
F  5.664202  0.863617  1.551778
S  2.367527  3.329675  1.990138
S  2.487040 -0.632274  2.983881
Fe  1.531372  0.765855  0.114632
Fe  1.436308  5.875242 -0.091038
%ENDBLOCK POSITIONS_ABS

