#######################################################
#CASTEP cell file: refined_structures-pbe/015-2LiFeSO4F-200804-053505-4412a9.cell
#Created using the Atomic Simulation Environment (ASE)#
#######################################################

%BLOCK LATTICE_CART
 6.267621 -0.297825 -0.318913
 1.120956  5.094438  0.026847
 4.414469  1.851230  5.648195
%ENDBLOCK LATTICE_CART

%BLOCK POSITIONS_ABS
Li  3.703614  2.233803  1.257702
Li  8.099431  4.414040  4.098426
O  6.648408  0.481267  0.705833
O  5.760705  2.660786  1.346395
O  1.883079  2.575130  1.745140
O  6.686961  1.173234  3.038376
O  5.154637  6.166577  4.650296
O  6.042340  3.987058  4.009734
O  9.919966  4.072713  3.610988
O  5.116084  5.474610  2.317753
F  3.740312  3.768083 -0.001020
F  8.062733  2.879761  5.357149
S  6.851309  1.664550  1.650151
S  4.951736  4.983293  3.705977
Fe  5.976872  2.108487  4.927603
Fe  5.826173  4.539357  0.428526
%ENDBLOCK POSITIONS_ABS

