#######################################################
#CASTEP cell file: refined_structures-pbe/016-LiFeSO4F-triplite_0 RELAXED.cell
#Created using the Atomic Simulation Environment (ASE)#
#######################################################

%BLOCK LATTICE_CART
 0.000000 -6.563797  0.000000
-6.563379 -3.281898 -0.065340
-1.724798 -3.281898 -8.581516
%ENDBLOCK LATTICE_CART

%BLOCK POSITIONS_ABS
Li -4.775065 -4.738067 -4.412056
Li -7.657200 -8.019966 -8.558228
Li -3.513112 -8.389527 -4.234800
Li -0.630977 -5.107628 -0.088628
O -2.252279 -7.509915 -2.602149
O -1.891809 -4.228017 -1.721279
O -6.035897 -5.617679 -6.044707
O -6.396368 -8.899577 -6.925577
O -3.792349 -3.505639 -3.064913
O -0.351740 -6.787538 -1.258515
O -4.495828 -9.621954 -5.581943
O -7.936437 -6.340056 -7.388341
O -3.570157 -2.751742 -0.748281
O -7.137310 -9.315539 -3.640487
O -4.718020 -10.375852 -7.898575
O -1.150866 -3.812055 -5.006369
O -4.130456 -5.062007 -1.225922
O -6.577011 -5.062007 -3.162846
O -4.157720 -8.065587 -7.420934
O -1.711165 -8.065587 -5.484010
F -2.415705 -5.805759 -7.643164
F -3.453181 -5.805759 -5.261780
F -5.872472 -7.321834 -1.003692
F -4.834996 -7.321834 -3.385076
S -0.794649 -7.178497 -2.604247
S -3.349440 -3.896599 -1.719181
S -7.493528 -5.949097 -6.042609
S -4.938737 -9.230995 -6.927675
Fe -1.497157 -5.896453 -5.591255
Fe -4.371729 -5.896453 -7.313689
Fe -6.791019 -7.231141 -3.055601
Fe -3.916448 -7.231141 -1.333167
%ENDBLOCK POSITIONS_ABS

