#######################################################
#CASTEP cell file: refined_structures-pbe/017-LiFeSO4F triplite-ordered-0.cell
#Created using the Atomic Simulation Environment (ASE)#
#######################################################

%BLOCK LATTICE_CART
 0.000000 -6.565378  0.000000
-6.565865 -3.282689 -0.064427
-1.724315 -3.282689 -8.572313
%ENDBLOCK LATTICE_CART

%BLOCK POSITIONS_ABS
Li -4.775467 -4.732683 -4.409380
Li -7.659802 -8.015372 -8.545730
Li -3.514712 -8.398073 -4.227360
Li -0.630378 -5.115384 -0.091010
O -2.251810 -7.511329 -2.600397
O -1.893280 -4.228640 -1.717973
O -6.038369 -5.619427 -6.036343
O -6.396899 -8.902116 -6.918767
O -3.794266 -3.506228 -3.060825
O -0.350824 -6.788917 -1.257545
O -4.495913 -9.624529 -5.575915
O -7.939355 -6.341840 -7.379195
O -3.571822 -2.753173 -0.746235
O -7.139132 -9.318551 -3.636562
O -4.718357 -10.377583 -7.890505
O -1.151047 -3.812205 -5.000178
O -4.133322 -5.062394 -1.224307
O -6.577632 -5.062394 -3.158490
O -4.156857 -8.068362 -7.412434
O -1.712547 -8.068362 -5.478250
F -2.416184 -5.805121 -7.633488
F -3.453220 -5.805121 -5.257195
F -5.873995 -7.325635 -1.003252
F -4.836959 -7.325635 -3.379545
S -0.794320 -7.181088 -2.602106
S -3.350770 -3.898399 -1.716264
S -7.495860 -5.949669 -6.034634
S -4.939409 -9.232358 -6.920476
Fe -1.498850 -5.900199 -5.584742
Fe -4.370554 -5.900199 -7.305942
Fe -6.791329 -7.230557 -3.051998
Fe -3.919625 -7.230557 -1.330798
%ENDBLOCK POSITIONS_ABS

