#######################################################
#CASTEP cell file: refined_structures-pbe/018-4LiFeSO4F-200804-071333-99f30d.cell
#Created using the Atomic Simulation Environment (ASE)#
#######################################################

%BLOCK LATTICE_CART
 5.371643  0.000037  0.000000
-0.000037  5.371643  0.000000
 0.000000  0.000000 12.875723
%ENDBLOCK LATTICE_CART

%BLOCK POSITIONS_ABS
Li  2.679678  1.396746  6.225568
Li  2.691928  3.974934 12.663429
Li  1.396709  2.691965  3.006637
Li  3.974897  2.679715  9.444498
O  0.104261  4.007236  8.680222
O  1.351216  2.849907  6.959407
O  2.564666  4.021630  8.673049
O  1.338777  5.308735  7.037670
O  5.267345  1.364444  2.242360
O  4.020390  2.521773  0.521545
O  2.806940  1.350050  2.235188
O  4.032829  0.062945  0.599809
O  4.007199  5.267382  5.461291
O  2.849870  4.020427  3.740476
O  4.021593  2.806977  5.454119
O  5.308698  4.032866  3.818739
O  1.364407  0.104298 11.899152
O  2.521736  1.351253 10.178337
O  1.350013  2.564703 11.891980
O  0.062908  1.338815 10.256601
F  1.329752  4.046289  1.404810
F  4.041854  1.325391  7.842672
F  4.046252  4.041891 11.061602
F  1.325354  1.329789  4.623741
S  1.330924  4.050931  7.837838
S  4.040682  1.320749  1.399977
S  4.050894  4.040719  4.618907
S  1.320712  1.330961 11.056768
Fe  4.004081 -0.004961  9.452310
Fe  1.367562  0.004999  3.014449
Fe -0.004999  1.367562  6.233379
Fe  0.004961  4.004081 12.671241
%ENDBLOCK POSITIONS_ABS

