#######################################################
#CASTEP cell file: refined_structures-pbe/019-4LiFeSO4F-200804-093629-270f26.cell
#Created using the Atomic Simulation Environment (ASE)#
#######################################################

%BLOCK LATTICE_CART
 7.436708 -0.026172 -0.048975
 5.515670  4.988255 -0.048975
 3.840447  1.471283  9.931682
%ENDBLOCK LATTICE_CART

%BLOCK POSITIONS_ABS
Li  9.582796  2.229997  0.781526
Li 10.540098  5.479125  5.747366
Li 12.321836  4.728913  0.772570
Li 14.247667  5.449918  5.738410
O  6.652821  2.570392  9.132372
O  8.062814  1.748762  7.331356
O  7.214339  4.051555  7.303893
O  5.741942  2.182997  6.877020
O  4.747084  1.796935  4.166531
O  5.247199  3.350332  2.365515
O  6.154500  1.070075  2.338052
O  3.810525  1.476573  1.911179
O  9.845012  3.791117  4.678616
O  7.517861  4.201977  4.229384
O  8.390974  1.908299  4.251830
O  8.935578  3.396886  2.424549
O 11.778246  4.492797  9.644456
O 10.321282  2.632236  9.195225
O  9.438402  4.922172  9.217671
O 10.838194  4.178487  7.390390
F  1.275755  0.455964  1.458156
F  3.174077  1.248775  6.423997
F 10.472787  4.045597  0.165857
F 12.415360  4.722900  5.131697
S  6.913758  2.636953  7.668300
S  4.985703  1.921755  2.702460
S  8.674950  3.327532  3.888857
S 10.597940  4.055952  8.854698
Fe 15.241970  5.815528  8.210360
Fe 13.305910  5.121224  3.244519
Fe 11.508713  2.974146  5.755295
Fe  8.629794  4.740958  0.789454
%ENDBLOCK POSITIONS_ABS

