#######################################################
#CASTEP cell file: refined_structures-pbe/020-2LiFeSO4F-200804-055229-a4aef3.cell
#Created using the Atomic Simulation Environment (ASE)#
#######################################################

%BLOCK LATTICE_CART
 5.379270  0.006246 -0.046605
-0.044972  5.368535  0.033937
 2.842643 -2.702815  6.379658
%ENDBLOCK LATTICE_CART

%BLOCK POSITIONS_ABS
Li  1.421321 -1.351408  3.189829
Li  2.689635  0.003123 -0.023303
O  1.235985  1.326617  0.773008
O  4.155934  1.328278  0.736368
O  5.408699  2.596128  2.393636
O  5.413617  0.141727  2.431420
O  6.940956  1.345348  5.593982
O  4.021006  1.343687  5.630622
O  2.768242  0.075837  3.973353
O  2.763324  2.530238  3.935570
F  5.497828 -1.338705  4.766898
F  2.679112  4.010670  1.600091
S  5.389064  1.354902  1.567764
S  2.787876  1.317063  4.799226
Fe  2.667149  2.687390 -0.006334
Fe  4.110956 -1.348285  3.166526
%ENDBLOCK POSITIONS_ABS

