#######################################################
#CASTEP cell file: refined_structures-pbe/021-2LiFeSO4F-200804-014703-4b353a.cell
#Created using the Atomic Simulation Environment (ASE)#
#######################################################

%BLOCK LATTICE_CART
 5.119344 -0.009266  0.148047
 0.248135  7.274187  0.537773
-0.395562 -0.550938  5.574801
%ENDBLOCK LATTICE_CART

%BLOCK POSITIONS_ABS
Li  1.273871  4.746645  4.036428
Li  3.698047  1.967339  2.224193
O  4.777695  1.071565  3.733838
O  1.844027  1.151391  2.505785
O  1.703974  0.597815  4.869483
O  1.238323  2.863323  4.121165
O  0.194223  5.642420  2.526783
O  3.127891  5.562593  3.754836
O  3.267945  6.116169  1.391138
O  3.733595  3.850661  2.139456
F  4.574855  1.094389  0.849634
F  0.397063  5.619595  5.410988
S  1.091062  1.459457  3.789999
S  3.880856  5.254528  2.470622
Fe  1.404665  7.179198  1.497474
Fe  3.567253 -0.465213  4.763147
%ENDBLOCK POSITIONS_ABS

