#######################################################
#CASTEP cell file: refined_structures-pbe/022-2LiFeSO4F-200804-041015-46cb41.cell
#Created using the Atomic Simulation Environment (ASE)#
#######################################################

%BLOCK LATTICE_CART
 5.102583 -0.014145 -0.145903
-0.251200  7.302383 -0.092626
-0.055931  0.191821  5.616612
%ENDBLOCK LATTICE_CART

%BLOCK POSITIONS_ABS
Li  3.675942  1.531956  1.828664
Li  1.119510  5.948103  3.549418
O  2.941253  4.746759  0.709126
O  3.464627  6.957804  1.570517
O -0.041040  5.155319  2.044982
O  2.944772  5.147385  3.108447
O  1.854200  2.733299  4.668956
O  1.330826  0.522254  3.807565
O  4.836492  2.324739  3.333101
O  1.850681  2.332674  2.269636
F  0.326959  4.989280  4.913264
F  4.468493  2.490778  0.464818
S  3.621353  5.535691  1.803477
S  1.174099  1.944367  3.574605
Fe  3.709524  3.800532  4.526007
Fe  1.085929  3.679526  0.852076
%ENDBLOCK POSITIONS_ABS

