#######################################################
#CASTEP cell file: refined_structures-pbe/023-2LiFeSO4F-200804-022644-43b3f4.cell
#Created using the Atomic Simulation Environment (ASE)#
#######################################################

%BLOCK LATTICE_CART
 7.287924 -0.126750  0.062551
 0.087028  5.628156  0.082819
 0.113841 -0.283528  5.102743
%ENDBLOCK LATTICE_CART

%BLOCK POSITIONS_ABS
Li  5.911910  4.569944  1.323749
Li  1.576883  0.647935  3.924364
O  5.121930  0.434683  2.453402
O  4.823051  1.586781  4.608226
O  6.990300  0.666774  4.007071
O  5.230720  4.804829  4.621330
O  2.366864  4.783196  2.794711
O  2.665742  3.631097  0.639887
O  0.498494  4.551104  1.241042
O  2.258074  0.413049  0.626782
F  4.927825  3.206693  2.109330
F  2.560968  2.011185  3.138783
S  5.558803  0.483441  3.883930
S  1.929991  4.734437  1.364182
Fe  3.698674  1.741974  1.394090
Fe  3.790120  3.475905  3.854023
%ENDBLOCK POSITIONS_ABS

