#######################################################
#CASTEP cell file: refined_structures-pbe/024-LiFeSO4F triplite-ordered-14.cell
#Created using the Atomic Simulation Environment (ASE)#
#######################################################

%BLOCK LATTICE_CART
 0.021109 -6.444061  0.001292
-6.589201 -3.199441 -0.004136
-1.649071 -3.221796 -8.701239
%ENDBLOCK LATTICE_CART

%BLOCK POSITIONS_ABS
Li -3.481380 -7.883789 -4.342449
Li -0.691361 -4.886090 -0.050743
Li -4.366343 -5.834546 -7.512596
Li -6.705526 -7.064863 -2.770597
O -2.171782 -7.399753 -2.687217
O -1.895022 -4.199826 -1.686092
O -5.957935 -5.610252 -6.087237
O -6.322107 -8.739908 -7.011982
O -3.774217 -3.508683 -3.086502
O -0.265058 -6.684686 -1.348338
O -4.429489 -9.495276 -5.682346
O -7.820666 -6.137507 -7.551410
O -3.584863 -2.679878 -0.791225
O -7.080328 -9.082110 -3.641838
O -4.661995 -10.206753 -8.026908
O -1.229500 -3.737496 -5.221686
O -4.157198 -4.974008 -1.182264
O -6.553678 -4.967947 -3.220660
O -4.074809 -7.909574 -7.483572
O -1.555630 -7.858052 -5.690714
F -2.427187 -5.581640 -7.517724
F -3.383967 -5.968037 -5.026235
F -5.967647 -6.866013 -0.765767
F -4.828003 -7.134110 -3.156451
S -0.738577 -7.033321 -2.722735
S -3.312182 -3.825992 -1.709743
S -7.433736 -5.829912 -6.143844
S -4.852491 -9.084927 -7.054178
Fe -4.837861 -4.783823 -4.415255
Fe -7.582646 -8.009081 -8.697170
Fe -1.403969 -5.755298 -5.652679
Fe -3.927445 -7.111625 -1.327181
%ENDBLOCK POSITIONS_ABS

