#######################################################
#CASTEP cell file: refined_structures-pbe/025-LiFeSO4F-triplite_14 RELAXED.cell
#Created using the Atomic Simulation Environment (ASE)#
#######################################################

%BLOCK LATTICE_CART
 0.025167 -6.436823 -0.001864
-6.596379 -3.192063 -0.001873
-1.643941 -3.220674 -8.703215
%ENDBLOCK LATTICE_CART

%BLOCK POSITIONS_ABS
Li -3.485763 -7.881978 -4.340212
Li -0.690372 -4.868025 -0.047523
Li -4.359176 -5.828124 -7.499957
Li -6.705268 -7.059681 -2.763556
O -2.169077 -7.390356 -2.691115
O -1.893478 -4.189900 -1.682081
O -5.961298 -5.607353 -6.084330
O -6.321918 -8.736628 -7.013688
O -3.773458 -3.504318 -3.083813
O -0.260595 -6.679964 -1.352819
O -4.430866 -9.482351 -5.676053
O -7.821049 -6.123950 -7.559838
O -3.587398 -2.675191 -0.788410
O -7.086443 -9.063516 -3.641424
O -4.655008 -10.197641 -8.022159
O -1.233580 -3.737269 -5.234180
O -4.153467 -4.968870 -1.179120
O -6.562795 -4.959033 -3.223727
O -4.074975 -7.897636 -7.477392
O -1.546325 -7.848753 -5.700842
F -2.417162 -5.586324 -7.533863
F -3.385292 -5.959544 -5.042147
F -5.966442 -6.856915 -0.774830
F -4.825700 -7.109593 -3.162694
S -0.734992 -7.024735 -2.727445
S -3.310988 -3.819752 -1.707113
S -7.437482 -5.821290 -6.149838
S -4.850258 -9.075565 -7.050692
Fe -4.840533 -4.783942 -4.409737
Fe -5.934089 -4.779290  0.002108
Fe -1.399436 -5.751896 -5.661206
Fe -3.923807 -7.102918 -1.328310
%ENDBLOCK POSITIONS_ABS

