#######################################################
#CASTEP cell file: refined_structures-pbe/026-2LiFeSO4F-200804-034021-de9c50.cell
#Created using the Atomic Simulation Environment (ASE)#
#######################################################

%BLOCK LATTICE_CART
 4.866778  0.022158  0.000000
 0.249217  6.258095  0.000000
 0.000000  0.000000  6.933116
%ENDBLOCK LATTICE_CART

%BLOCK POSITIONS_ABS
Li  1.179200  5.495964  6.198061
Li  3.936795  0.784289  2.731503
O  4.698136  0.897808  6.501484
O  2.903186  6.144357  5.645717
O  3.685093  1.716734  4.445069
O  2.655403  2.170088  6.599562
O  0.417859  5.382445  3.034926
O  2.212809  0.135896  2.179159
O  1.430902  4.563519  0.978511
O  2.460591  4.110166  3.133004
F  0.377719  3.863455  5.559943
F  4.738276  2.416798  2.093385
S  3.379022  1.146061  5.795997
S  1.736973  5.134192  2.329439
Fe  4.336592  3.637156  3.782264
Fe  0.779403  2.643097  0.315707
%ENDBLOCK POSITIONS_ABS

