#######################################################
#CASTEP cell file: refined_structures-pbe/027-LiFeSO4F triplite-ordered-16.cell
#Created using the Atomic Simulation Environment (ASE)#
#######################################################

%BLOCK LATTICE_CART
 0.000000 -6.339785  0.000000
-6.828606 -3.169892  0.234256
-1.392960 -3.169892 -8.810362
%ENDBLOCK LATTICE_CART

%BLOCK POSITIONS_ABS
Li -3.632302 -8.102692 -3.911507
Li -0.478481 -4.932800 -0.376546
Li -6.686068 -6.951335 -2.710968
Li -4.253321 -6.951335 -1.342828
O -2.116378 -7.348162 -2.867006
O -1.994405 -4.178270 -1.421047
O -5.980279 -5.571874 -5.979098
O -6.352070 -8.741767 -6.885061
O -3.866465 -3.486047 -2.824509
O -0.244318 -6.655940 -1.463543
O -4.571923 -9.252125 -5.308799
O -7.760426 -6.082233 -7.555359
O -3.638682 -2.556029 -0.590789
O -7.300707 -8.895814 -3.463007
O -4.410439 -9.997534 -7.644930
O -1.093304 -3.657750 -5.453485
O -4.256061 -4.898401 -0.894683
O -6.683328 -4.898401 -3.159113
O -4.155595 -7.687347 -7.118916
O -1.348147 -7.687347 -5.979499
F -2.158813 -5.559424 -7.780726
F -3.344929 -5.559424 -5.317688
F -6.112615 -6.822414 -0.821988
F -4.826774 -6.822414 -3.231808
S -0.711540 -6.946295 -2.861721
S -3.399243 -3.776403 -1.426332
S -7.464818 -5.750102 -6.134707
S -4.867531 -8.919995 -6.729451
Fe -4.842467 -4.841269 -4.151520
Fe -6.096922 -4.841269  0.097724
Fe -1.257813 -5.665505 -5.778029
Fe -4.245929 -5.665505 -7.320386
%ENDBLOCK POSITIONS_ABS

