#######################################################
#CASTEP cell file: refined_structures-pbe/028-2LiFeSO4F-200804-024603-9378c0.cell
#Created using the Atomic Simulation Environment (ASE)#
#######################################################

%BLOCK LATTICE_CART
 4.868594  0.294025  0.000000
-0.746598  6.187588  0.000000
 0.000000  0.000000  6.908500
%ENDBLOCK LATTICE_CART

%BLOCK POSITIONS_ABS
Li  0.742637  5.486312  2.186745
Li  3.379360  0.995301  5.640995
O -0.327639  4.107399  6.115847
O  0.614917  4.563011  3.922280
O  1.648845  5.467948  5.936769
O  0.286199  0.180898  5.122013
O  4.449635  2.374214  2.661597
O  3.507079  1.918602  0.468030
O  2.473151  1.013665  2.482519
O  3.835797  6.300715  1.667763
F  2.407658  2.551262  5.029898
F  1.714338  3.930351  1.575648
S  0.326030  5.144161  5.271610
S  3.795966  1.337452  1.817360
Fe  1.428426  2.697078  3.281999
Fe  2.693570  3.784534  6.736249
%ENDBLOCK POSITIONS_ABS

