#######################################################
#CASTEP cell file: refined_structures-pbe/029-LiFeSO4F triplite-ordered-1.cell
#Created using the Atomic Simulation Environment (ASE)#
#######################################################

%BLOCK LATTICE_CART
-0.015710 -6.519772 -0.010704
-6.580285 -3.275630 -0.059246
-1.721883 -3.259814 -8.641501
%ENDBLOCK LATTICE_CART

%BLOCK POSITIONS_ABS
Li -7.712880 -7.980137 -8.497082
Li -3.423967 -8.082786 -4.394174
Li -2.340829 -8.192777 -8.615057
Li -1.570579 -5.933462 -5.871269
O -2.244656 -7.442930 -2.631287
O -1.938009 -4.239940 -1.744318
O -6.039293 -5.645284 -6.052813
O -6.443863 -8.855565 -6.995794
O -3.856977 -3.489283 -3.057687
O -0.395819 -6.813522 -1.182702
O -4.547057 -9.559784 -5.620444
O -7.972591 -6.319582 -7.356031
O -3.593239 -2.743128 -0.757318
O -7.045912 -9.273344 -3.558271
O -4.763702 -10.348719 -7.939060
O -1.169407 -3.772897 -4.970420
O -4.174499 -5.052294 -1.216200
O -6.572562 -5.059137 -3.130625
O -4.185541 -8.043510 -7.463963
O -1.682729 -7.964764 -5.504699
F -2.427550 -5.947285 -7.841725
F -3.429903 -5.742989 -5.423202
F -5.875030 -7.388247 -1.186242
F -4.772036 -7.019929 -3.504241
S -0.787744 -7.105191 -2.563304
S -3.377726 -3.898628 -1.707374
S -7.531161 -5.931890 -6.005555
S -5.012187 -9.185591 -6.986879
Fe -4.855917 -4.816412 -4.386159
Fe -4.357345 -5.886102 -7.406827
Fe -6.809225 -7.224822 -3.108198
Fe -3.897994 -7.183339 -1.345796
%ENDBLOCK POSITIONS_ABS

