#######################################################
#CASTEP cell file: refined_structures-pbe/030-LiFeSO4F triplite-ordered-6.cell
#Created using the Atomic Simulation Environment (ASE)#
#######################################################

%BLOCK LATTICE_CART
 0.000000 -6.468883  0.000000
-6.625669 -3.234442  0.008240
-1.650102 -3.234442 -8.625421
%ENDBLOCK LATTICE_CART

%BLOCK POSITIONS_ABS
Li -7.647943 -7.951841 -8.523919
Li -3.510058 -8.220367 -4.215329
Li -4.240236 -5.816101 -7.297393
Li -6.728019 -7.121665 -2.980563
O -2.224481 -7.385126 -2.616510
O -1.918305 -4.122288 -1.665886
O -6.056191 -5.581036 -5.974476
O -6.362367 -8.787081 -6.925100
O -3.814138 -3.517205 -3.057341
O -0.352760 -6.642904 -1.249418
O -4.490646 -9.529303 -5.558008
O -7.952024 -6.186119 -7.365931
O -3.665166 -2.687333 -0.760892
O -7.170751 -9.122171 -3.568137
O -4.682967 -10.284478 -7.884968
O -1.177382 -3.781550 -5.077723
O -4.151272 -5.009910 -1.170203
O -6.603827 -4.960930 -3.068349
O -4.116044 -7.976836 -7.385179
O -1.663489 -7.927857 -5.487034
F -2.289987 -5.968156 -7.735244
F -3.414427 -5.719616 -5.400196
F -5.902211 -7.218150 -1.083365
F -4.777771 -6.969610 -3.418413
S -0.780359 -7.012497 -2.622561
S -3.374198 -3.835380 -1.659659
S -7.512083 -5.867944 -5.968249
S -4.918244 -9.159710 -6.931151
Fe -4.861336 -4.906806 -4.270741
Fe -2.373553 -8.030960 -8.587572
Fe -1.421209 -5.808193 -5.653810
Fe -3.908993 -7.129574 -1.336980
%ENDBLOCK POSITIONS_ABS

