#######################################################
#CASTEP cell file: refined_structures-pbe/031-2LiFeSO4F-200804-054559-bc69f4.cell
#Created using the Atomic Simulation Environment (ASE)#
#######################################################

%BLOCK LATTICE_CART
 5.050440 -0.005096  0.000000
-1.142809  6.879069  0.000000
 0.000000  0.000000  6.058904
%ENDBLOCK LATTICE_CART

%BLOCK POSITIONS_ABS
Li  0.571682  6.758697  4.613716
Li  3.335950  0.115275  1.584264
O  2.394643  3.934347  3.961638
O  4.071099  5.611430  4.252294
O  3.113559  5.263625  2.026900
O -0.461175  3.602608  2.946622
O  1.512988  2.939625  0.932186
O -0.163468  1.262542  1.222842
O  0.794072  1.610347  5.056353
O  4.368806  3.271364  5.976075
F  1.621959  6.116615  6.019808
F  2.285672  0.757357  2.990356
S  3.584956  4.617183  3.279827
S  0.322675  2.256789  0.250375
Fe  2.708249  4.455911  0.016057
Fe  1.199382  2.418062  3.045509
%ENDBLOCK POSITIONS_ABS

