#######################################################
#CASTEP cell file: refined_structures-pbe/032-LiFeSO4F triplite-ordered-17.cell
#Created using the Atomic Simulation Environment (ASE)#
#######################################################

%BLOCK LATTICE_CART
-0.007628 -6.543468 -0.011206
-6.504784 -3.279993 -0.110530
-1.771423 -3.246075 -8.697218
%ENDBLOCK LATTICE_CART

%BLOCK POSITIONS_ABS
Li -0.637654 -4.992461 -0.078975
Li -1.673064 -5.802101 -5.749171
Li -4.441041 -5.885981 -7.594691
Li -6.862521 -7.327330 -3.360488
O -2.232301 -7.462935 -2.648153
O -1.861614 -4.214523 -1.809880
O -5.995222 -5.617550 -6.162456
O -6.368380 -8.839054 -7.074859
O -3.753083 -3.510236 -3.187540
O -0.321276 -6.815767 -1.303035
O -4.454274 -9.548828 -5.754682
O -7.850821 -6.258183 -7.582849
O -3.565394 -2.737404 -0.863928
O -7.002937 -9.320267 -3.736139
O -4.700834 -10.307014 -8.077049
O -1.230266 -3.817393 -5.161302
O -4.117565 -5.030600 -1.323191
O -6.523596 -5.099768 -3.268358
O -4.132612 -7.988064 -7.583420
O -1.739713 -8.029871 -5.608270
F -2.590268 -5.614967 -7.489639
F -3.435848 -6.024765 -4.966622
F -5.818183 -7.018324 -0.696968
F -4.901198 -7.427959 -3.230445
S -0.761214 -7.141223 -2.692875
S -3.283904 -3.867115 -1.796624
S -7.453872 -5.964940 -6.177467
S -4.924362 -9.155216 -7.154836
Fe -4.875161 -4.761301 -4.543585
Fe -7.664718 -8.147910 -8.703773
Fe -3.440318 -8.157624 -4.412984
Fe -3.928164 -7.225909 -1.309009
%ENDBLOCK POSITIONS_ABS

