#######################################################
#CASTEP cell file: refined_structures-pbe/033-LiFeSO4F triplite-ordered-7.cell
#Created using the Atomic Simulation Environment (ASE)#
#######################################################

%BLOCK LATTICE_CART
 0.009932 -6.517150  0.014543
-6.548120 -3.248628 -0.040801
-1.694011 -3.268776 -8.650768
%ENDBLOCK LATTICE_CART

%BLOCK POSITIONS_ABS
Li -7.515560 -8.071391 -8.632054
Li -3.529390 -8.256192 -4.158781
Li -4.204825 -5.822916 -7.422218
Li -3.816254 -7.239581 -1.088765
O -2.302186 -7.446663 -2.615195
O -1.891302 -4.149053 -1.720591
O -6.029116 -5.550666 -6.035960
O -6.298494 -8.846061 -6.952292
O -3.841199 -3.512812 -3.022903
O -0.416610 -6.720781 -1.237946
O -4.453662 -9.532966 -5.527993
O -7.909282 -6.256697 -7.405637
O -3.596177 -2.746110 -0.705663
O -7.151194 -9.219391 -3.618030
O -4.594574 -10.355682 -7.836594
O -1.170213 -3.804352 -5.068538
O -4.095314 -5.081003 -1.185334
O -6.592367 -4.986926 -3.124891
O -4.060198 -8.033075 -7.401061
O -1.722206 -8.005746 -5.482907
F -2.244326 -6.057288 -7.822564
F -3.363954 -5.664778 -5.472376
F -5.768694 -7.369833 -1.208798
F -4.906696 -6.988983 -3.751358
S -0.879027 -7.092971 -2.593998
S -3.383031 -3.867129 -1.630315
S -7.469004 -5.883646 -6.031357
S -4.844586 -9.220583 -6.931849
Fe -4.811808 -4.852113 -4.338893
Fe -2.353049 -8.121097 -8.634084
Fe -1.410392 -5.886008 -5.730118
Fe -6.784503 -7.179148 -3.094114
%ENDBLOCK POSITIONS_ABS

