#######################################################
#CASTEP cell file: refined_structures-pbe/034-LiFeSO4F triplite-ordered-4.cell
#Created using the Atomic Simulation Environment (ASE)#
#######################################################

%BLOCK LATTICE_CART
-0.000304 -6.509724 -0.035287
-6.606993 -3.255857 -0.012243
-1.645205 -3.296989 -8.656674
%ENDBLOCK LATTICE_CART

%BLOCK POSITIONS_ABS
Li -5.927327 -4.731837  0.016608
Li -3.580137 -8.276067 -4.136561
Li -0.593654 -5.068502 -0.180959
Li -4.003340 -7.149936 -1.233881
O -2.302422 -7.483345 -2.726346
O -1.962624 -4.259874 -1.692491
O -5.949947 -5.638926 -6.071826
O -6.310653 -8.876265 -6.939169
O -3.892179 -3.507986 -2.980736
O -0.428685 -6.788767 -1.324034
O -4.448292 -9.572091 -5.534996
O -7.847273 -6.325605 -7.429434
O -3.584014 -2.731662 -0.695353
O -7.195776 -9.235514 -3.642204
O -4.592767 -10.318074 -7.876701
O -1.080301 -3.790386 -5.078980
O -4.203297 -5.054491 -1.139483
O -6.643678 -5.035004 -3.162223
O -4.071798 -8.022652 -7.372790
O -1.569588 -7.992196 -5.635251
F -2.274836 -5.854367 -7.765668
F -3.327427 -5.690356 -5.412699
F -5.907635 -7.351429 -1.204228
F -4.878038 -6.964749 -3.682923
S -0.880287 -7.129987 -2.676211
S -3.404779 -3.904926 -1.609547
S -7.431346 -5.926739 -6.079951
S -4.849615 -9.200677 -6.923962
Fe -4.829117 -4.888488 -4.269978
Fe -1.344295 -5.863707 -5.712425
Fe -4.251992 -5.871888 -7.451260
Fe -6.827709 -7.197635 -2.984918
%ENDBLOCK POSITIONS_ABS

