#######################################################
#CASTEP cell file: refined_structures-pbe/035-LiFeSO4F triplite-ordered-3.cell
#Created using the Atomic Simulation Environment (ASE)#
#######################################################

%BLOCK LATTICE_CART
 0.009183 -6.506244 -0.017436
-6.598479 -3.243732 -0.015907
-1.655556 -3.260927 -8.658259
%ENDBLOCK LATTICE_CART

%BLOCK POSITIONS_ABS
Li -7.641891 -7.984701 -8.640850
Li -3.514651 -8.253458 -4.208492
Li -0.567703 -5.048507 -0.178944
Li -6.697345 -7.163405 -2.827146
O -2.254697 -7.419486 -2.684152
O -1.895902 -4.219666 -1.688119
O -5.979213 -5.669546 -6.053340
O -6.346282 -8.838330 -6.949107
O -3.814844 -3.516995 -3.038016
O -0.356170 -6.740822 -1.321476
O -4.472310 -9.595557 -5.581912
O -7.838765 -6.215971 -7.508646
O -3.553786 -2.692492 -0.758125
O -7.136857 -9.195473 -3.644391
O -4.669170 -10.304717 -7.926818
O -1.216768 -3.772396 -5.172376
O -4.153024 -5.005087 -1.156476
O -6.637581 -5.022368 -3.155724
O -4.096685 -8.015355 -7.391594
O -1.579752 -7.950794 -5.637823
F -2.369093 -5.736714 -7.690209
F -3.406996 -5.790490 -5.334115
F -5.861794 -7.214837 -0.992193
F -4.805928 -7.011912 -3.414334
S -0.797605 -7.080401 -2.681616
S -3.321197 -3.882069 -1.671298
S -7.483156 -5.904450 -6.115611
S -4.897890 -9.178551 -6.944492
Fe -4.885938 -4.923992 -4.259051
Fe -1.397211 -5.814998 -5.658470
Fe -4.333667 -5.866912 -7.417114
Fe -3.933753 -7.143999 -1.363602
%ENDBLOCK POSITIONS_ABS

