#######################################################
#CASTEP cell file: refined_structures-pbe/036-LiFeSO4F triplite-ordered-21.cell
#Created using the Atomic Simulation Environment (ASE)#
#######################################################

%BLOCK LATTICE_CART
 0.000000 -6.387885  0.000000
-6.591615 -3.193942 -0.017093
-1.670402 -3.193942 -8.716332
%ENDBLOCK LATTICE_CART

%BLOCK POSITIONS_ABS
Li -1.488742 -5.712190 -5.653225
Li -4.312669 -5.712190 -7.429820
Li -6.773275 -7.063579 -3.080201
Li -3.949348 -7.063579 -1.303605
O -2.217633 -7.257324 -2.669148
O -1.913376 -4.063381 -1.697565
O -6.044384 -5.518446 -6.064278
O -6.348642 -8.712388 -7.035860
O -3.785926 -3.438653 -3.113010
O -0.345082 -6.632595 -1.253703
O -4.476091 -9.337116 -5.620416
O -7.916935 -6.143174 -7.479723
O -3.668073 -2.608398 -0.807419
O -7.054551 -8.996282 -3.576387
O -4.593945 -10.167372 -7.926007
O -1.207466 -3.779487 -5.157038
O -4.144998 -4.938622 -1.232209
O -6.577625 -4.938622 -3.151597
O -4.117019 -7.837147 -7.501216
O -1.684392 -7.837147 -5.581829
F -2.416655 -5.815229 -7.811404
F -3.384756 -5.815229 -5.271641
F -5.845362 -6.960540 -0.922021
F -4.877261 -6.960541 -3.461785
S -0.768682 -6.934124 -2.678952
S -3.362327 -3.740181 -1.687761
S -7.493336 -5.841646 -6.054474
S -4.899690 -9.035588 -7.045665
Fe -4.841139 -4.819613 -4.374540
Fe -7.551887 -8.013555 -8.725598
Fe -3.420878 -7.956157 -4.358886
Fe -0.710131 -4.762214 -0.007827
%ENDBLOCK POSITIONS_ABS

