#######################################################
#CASTEP cell file: refined_structures-pbe/037-LiFeSO4F triplite-ordered-8.cell
#Created using the Atomic Simulation Environment (ASE)#
#######################################################

%BLOCK LATTICE_CART
 0.009017 -6.477597 -0.011162
-6.595754 -3.229274 -0.013099
-1.656492 -3.251705 -8.705156
%ENDBLOCK LATTICE_CART

%BLOCK POSITIONS_ABS
Li -5.917708 -5.150508 -0.239127
Li -3.533600 -8.223100 -4.126701
Li -6.678068 -7.110266 -2.980829
Li -4.047458 -7.063585 -1.644789
O -2.262001 -7.396598 -2.716007
O -1.922818 -4.145569 -1.667535
O -5.981604 -5.584215 -6.076759
O -6.308491 -8.830462 -6.974246
O -3.853966 -3.488255 -2.990501
O -0.395292 -6.725110 -1.290298
O -4.463317 -9.465341 -5.520487
O -7.883340 -6.175756 -7.471092
O -3.634682 -2.703995 -0.695625
O -7.142634 -9.115776 -3.607007
O -4.535337 -10.268330 -7.848953
O -1.163955 -3.740603 -5.149928
O -4.128808 -5.054946 -1.164440
O -6.610691 -4.969565 -3.141302
O -4.064953 -7.975436 -7.415723
O -1.583749 -7.889315 -5.595203
F -2.327146 -5.963731 -7.820933
F -3.365385 -5.642807 -5.464834
F -5.881625 -7.131909 -1.068338
F -4.817017 -6.928962 -3.535430
S -0.834190 -7.044950 -2.681846
S -3.381812 -3.860553 -1.611603
S -7.469350 -5.842578 -6.084163
S -4.856974 -9.161736 -6.918928
Fe -4.835834 -4.891474 -4.241473
Fe -0.672922 -4.931709 -0.092583
Fe -1.344683 -5.779770 -5.646993
Fe -4.335760 -5.828600 -7.481834
%ENDBLOCK POSITIONS_ABS

