#######################################################
#CASTEP cell file: refined_structures-pbe/038-LiFeSO4F triplite-ordered-13.cell
#Created using the Atomic Simulation Environment (ASE)#
#######################################################

%BLOCK LATTICE_CART
 0.000000 -6.509790  0.000000
-6.573522 -3.254895 -0.034744
-1.690087 -3.254895 -8.657135
%ENDBLOCK LATTICE_CART

%BLOCK POSITIONS_ABS
Li -3.448983 -7.859446 -4.564383
Li -2.372908 -7.859446 -8.438691
Li -1.535043 -5.909180 -5.721598
Li -4.286848 -5.909180 -7.281476
O -2.201692 -7.456682 -2.609663
O -1.930112 -4.201787 -1.736276
O -6.010153 -5.631398 -6.042114
O -6.385260 -8.886293 -6.995704
O -3.829811 -3.544684 -3.104094
O -0.301993 -6.799579 -1.241845
O -4.470729 -9.543261 -5.652441
O -7.924683 -6.288366 -7.385377
O -3.653255 -2.739992 -0.801189
O -7.052071 -9.249782 -3.579494
O -4.667235 -10.321283 -7.972457
O -1.154656 -3.811492 -5.030617
O -4.157536 -5.048176 -1.205578
O -6.547790 -5.048176 -3.175105
O -4.166973 -7.982904 -7.466308
O -1.654918 -7.982904 -5.536766
F -2.420948 -5.918953 -7.746270
F -3.400943 -5.918953 -5.256804
F -5.893213 -7.155847 -1.011613
F -4.812113 -7.155847 -3.369070
S -0.757356 -7.119516 -2.614273
S -3.374448 -3.864621 -1.731666
S -7.477056 -5.923063 -6.005144
S -4.918357 -9.177958 -7.032674
Fe -4.811566 -4.792870 -4.478379
Fe -7.583847 -8.047765 -8.559439
Fe -6.819500 -7.209388 -3.092387
Fe -3.885826 -7.209388 -1.288296
%ENDBLOCK POSITIONS_ABS

