#######################################################
#CASTEP cell file: refined_structures-pbe/039-LiFeSO4F triplite-ordered-18.cell
#Created using the Atomic Simulation Environment (ASE)#
#######################################################

%BLOCK LATTICE_CART
 0.001281 -6.404850 -0.033228
-6.636125 -3.200697 -0.001786
-1.639456 -3.247803 -8.723948
%ENDBLOCK LATTICE_CART

%BLOCK POSITIONS_ABS
Li -2.358570 -7.752235 -8.554927
Li -1.513426 -5.799915 -5.856335
Li -4.323808 -5.766957 -7.568231
Li -3.992222 -7.064228 -1.147747
O -2.195309 -7.343297 -2.740160
O -1.964632 -4.132423 -1.698074
O -6.034607 -5.547869 -6.064280
O -6.370574 -8.791469 -7.040833
O -3.827376 -3.452065 -3.120823
O -0.329198 -6.750669 -1.313242
O -4.460319 -9.395662 -5.659836
O -7.914774 -6.257997 -7.427943
O -3.666064 -2.617585 -0.818094
O -7.060300 -9.085554 -3.593135
O -4.614322 -10.190176 -7.978306
O -1.100011 -3.822081 -5.090289
O -4.210158 -4.939704 -1.233927
O -6.594855 -5.001285 -3.211972
O -4.160832 -7.846111 -7.493672
O -1.647110 -7.921149 -5.633605
F -2.373199 -5.850952 -7.767609
F -3.313005 -5.864502 -5.222734
F -5.991701 -6.950787 -1.043935
F -4.855950 -6.995420 -3.516087
S -0.752314 -7.030866 -2.702964
S -3.404185 -3.764791 -1.697999
S -7.478124 -5.909048 -6.049104
S -4.902203 -9.054969 -7.085901
Fe -4.805592 -4.823472 -4.461535
Fe -7.569918 -8.051524 -8.690160
Fe -3.381228 -8.006166 -4.444411
Fe -6.862374 -7.120463 -2.939468
%ENDBLOCK POSITIONS_ABS

