#######################################################
#CASTEP cell file: refined_structures-pbe/040-2LiFeSO4F-200804-032323-cfc887.cell
#Created using the Atomic Simulation Environment (ASE)#
#######################################################

%BLOCK LATTICE_CART
 4.875356  0.062557  0.015577
-5.415887  6.475732  0.064972
-2.333998 -1.840650  6.990228
%ENDBLOCK LATTICE_CART

%BLOCK POSITIONS_ABS
Li -0.566125  2.269709  1.894801
Li -2.308403  2.427931  5.175976
O -0.349503 -0.572597  5.069252
O  0.087648  0.673323  2.999908
O -3.212340  0.676670  4.847984
O -0.466002  1.897173  5.008932
O -2.525026  5.270237  2.001525
O -2.962176  4.024317  4.070869
O -4.537544  3.958413  2.207216
O -2.408527  2.800467  2.061845
F -0.429869  1.145699  0.413184
F -2.444659  3.551941  6.657593
S  0.196916  0.696371  4.507529
S -3.071444  4.001269  2.563248
Fe -5.434830  5.763299  1.539406
Fe  2.560301 -1.065659  5.531371
%ENDBLOCK POSITIONS_ABS

