#######################################################
#CASTEP cell file: refined_structures-pbe/041-LiFeSO4F triplite-ordered-2.cell
#Created using the Atomic Simulation Environment (ASE)#
#######################################################

%BLOCK LATTICE_CART
-0.015475 -6.491899 -0.038438
-6.627772 -3.261766 -0.022858
-1.668459 -3.303663 -8.636531
%ENDBLOCK LATTICE_CART

%BLOCK POSITIONS_ABS
Li -7.670887 -7.991209 -8.525651
Li -3.512533 -8.065041 -4.420899
Li -2.350030 -8.136163 -8.594987
Li -4.270022 -5.946313 -7.469463
O -2.258542 -7.468724 -2.639561
O -1.933534 -4.202801 -1.766251
O -6.049293 -5.633220 -6.003262
O -6.358155 -8.826665 -7.020144
O -3.854070 -3.510878 -3.096951
O -0.353847 -6.743170 -1.297835
O -4.480759 -9.568249 -5.653321
O -7.950657 -6.297680 -7.363686
O -3.629988 -2.763715 -0.779160
O -7.199730 -9.253603 -3.645491
O -4.704449 -10.358540 -7.962684
O -1.141624 -3.830052 -5.036721
O -4.158123 -5.068861 -1.254950
O -6.623482 -5.049625 -3.145158
O -4.103861 -8.037707 -7.483958
O -1.670554 -7.993896 -5.523516
F -2.331120 -5.869498 -7.612403
F -3.424168 -5.942078 -5.146400
F -5.946161 -7.271775 -1.037060
F -4.901137 -7.170985 -3.399697
S -0.817033 -7.111437 -2.633096
S -3.391959 -3.888524 -1.727224
S -7.505533 -5.933334 -6.013275
S -4.909152 -9.191781 -7.041833
Fe -4.867290 -4.810584 -4.412442
Fe -1.450231 -5.856735 -5.776879
Fe -6.877004 -7.221784 -3.029289
Fe -3.960836 -7.206281 -1.288508
%ENDBLOCK POSITIONS_ABS

