#######################################################
#CASTEP cell file: refined_structures-pbe/042-LiFeSO4F triplite-ordered-10.cell
#Created using the Atomic Simulation Environment (ASE)#
#######################################################

%BLOCK LATTICE_CART
-0.020916 -6.490265 -0.033955
-6.607559 -3.266783 -0.056428
-1.713259 -3.280715 -8.678448
%ENDBLOCK LATTICE_CART

%BLOCK POSITIONS_ABS
Li -7.755171 -8.059886 -8.662501
Li -0.662917 -4.985637 -0.129429
Li -4.321435 -5.911587 -7.598285
Li -6.765615 -7.158365 -2.788638
O -2.268622 -7.422950 -2.678035
O -1.909149 -4.208840 -1.774336
O -6.080074 -5.626156 -6.064220
O -6.375017 -8.797878 -7.051871
O -3.813560 -3.524927 -3.152349
O -0.357078 -6.697301 -1.369691
O -4.485667 -9.560855 -5.707411
O -7.913120 -6.222920 -7.528621
O -3.606742 -2.740453 -0.834427
O -7.174878 -9.255409 -3.767087
O -4.735542 -10.321981 -8.019497
O -1.275996 -3.794477 -5.162930
O -4.161367 -5.041930 -1.300339
O -6.628840 -5.067452 -3.203709
O -4.121822 -8.008156 -7.536785
O -1.739572 -7.971804 -5.601353
F -2.434062 -5.693844 -7.526777
F -3.485160 -6.010619 -5.058380
F -5.955156 -7.125684 -0.925980
F -4.908821 -7.308922 -3.313101
S -0.804236 -7.074608 -2.713866
S -3.339974 -3.889894 -1.748976
S -7.531522 -5.947316 -6.141510
S -4.937511 -9.155339 -7.110560
Fe -4.951501 -4.818590 -4.429002
Fe -3.463688 -8.202063 -4.378979
Fe -1.494144 -5.812046 -5.740799
Fe -4.009784 -7.186301 -1.281841
%ENDBLOCK POSITIONS_ABS

