#######################################################
#CASTEP cell file: refined_structures-pbe/043-LiFeSO4F triplite-ordered-19.cell
#Created using the Atomic Simulation Environment (ASE)#
#######################################################

%BLOCK LATTICE_CART
-0.009546 -6.413774 -0.002653
-6.612983 -3.216637  0.010278
-1.641775 -3.205669 -8.731284
%ENDBLOCK LATTICE_CART

%BLOCK POSITIONS_ABS
Li -0.537481 -4.911404 -0.186617
Li -1.458728 -5.737979 -5.660729
Li -6.678193 -7.088601 -2.781531
Li -4.051122 -7.044951 -1.409599
O -2.192560 -7.291248 -2.714760
O -1.879162 -4.123691 -1.647410
O -6.061063 -5.582711 -6.064818
O -6.418431 -8.797403 -6.992039
O -3.758561 -3.449895 -3.062783
O -0.304528 -6.697663 -1.313814
O -4.529820 -9.387968 -5.564638
O -7.884178 -6.162495 -7.545091
O -3.588058 -2.608069 -0.769428
O -7.053786 -9.036751 -3.581783
O -4.617693 -10.156146 -7.897218
O -1.261604 -3.797897 -5.247683
O -4.132564 -4.938266 -1.189667
O -6.582305 -4.979527 -3.199102
O -4.197786 -7.847937 -7.408628
O -1.691455 -7.877535 -5.653776
F -2.431387 -5.683938 -7.715401
F -3.452721 -5.838786 -5.312160
F -5.901225 -6.910437 -0.905820
F -4.802088 -7.012147 -3.382319
S -0.742800 -6.965326 -2.722766
S -3.301687 -3.778647 -1.652813
S -7.546897 -5.896056 -6.120282
S -4.958172 -9.042509 -6.980664
Fe -4.863905 -4.830817 -4.326529
Fe -5.921737 -4.898906 -0.049915
Fe -3.377612 -8.036650 -4.351204
Fe -4.407771 -5.759260 -7.436277
%ENDBLOCK POSITIONS_ABS

