#######################################################
#CASTEP cell file: refined_structures-pbe/044-2LiFeSO4F-200804-052525-770d61.cell
#Created using the Atomic Simulation Environment (ASE)#
#######################################################

%BLOCK LATTICE_CART
 7.457252 -0.184290 -0.045791
-0.085892  7.459034 -0.045791
 2.787890  2.751350  3.421313
%ENDBLOCK LATTICE_CART

%BLOCK POSITIONS_ABS
Li  9.035210  7.983531  3.092876
Li  6.708091  7.553424  1.382219
O  5.161387  6.263467  1.204401
O  3.587506  4.578661  2.012412
O  2.747949  6.496708  0.877202
O  3.693069  6.764788  3.102921
O  7.724959  6.453980  2.915058
O  3.231646  2.151114  0.301755
O  7.926341  4.037676  2.587859
O  5.418976  2.227827  1.392265
F  8.421149  1.156816  1.406069
F  2.661759  9.780829  3.116725
S  3.822522  6.057900  1.786714
S  4.713857  2.366595  0.076057
Fe  1.867961  3.299214  1.461626
Fe  4.717516  3.199947  3.172283
%ENDBLOCK POSITIONS_ABS

