#######################################################
#CASTEP cell file: refined_structures-pbe/045-LiFeSO4F triplite-ordered-15.cell
#Created using the Atomic Simulation Environment (ASE)#
#######################################################

%BLOCK LATTICE_CART
 0.010033 -6.491844 -0.001320
-6.583995 -3.235795 -0.006997
-1.649354 -3.261050 -8.674489
%ENDBLOCK LATTICE_CART

%BLOCK POSITIONS_ABS
Li -3.535077 -8.141975 -4.248480
Li -2.327073 -8.025570 -8.619086
Li -4.338940 -5.835947 -7.539547
Li -3.926342 -7.185672 -1.145875
O -2.242901 -7.450576 -2.674262
O -1.915265 -4.161734 -1.710437
O -5.951610 -5.615907 -6.075657
O -6.327856 -8.897756 -6.983458
O -3.832387 -3.492079 -3.058870
O -0.341406 -6.768985 -1.293985
O -4.457132 -9.521929 -5.567755
O -7.836529 -6.308378 -7.452972
O -3.608774 -2.682489 -0.762432
O -7.128355 -9.170098 -3.586871
O -4.569655 -10.302774 -7.900298
O -1.094323 -3.812093 -5.105073
O -4.130872 -5.011550 -1.185652
O -6.582576 -4.984072 -3.198621
O -4.107478 -7.967857 -7.405809
O -1.602244 -8.003466 -5.629066
F -2.365230 -5.834978 -7.659796
F -3.256791 -5.826401 -5.141429
F -5.907609 -7.013917 -0.970098
F -4.924318 -7.034108 -3.553267
S -0.824413 -7.099449 -2.657628
S -3.369450 -3.812364 -1.673700
S -7.408038 -5.921953 -6.083995
S -4.824635 -9.182045 -6.981431
Fe -4.795899 -4.855581 -4.394509
Fe -5.878781 -4.885454 -0.031884
Fe -1.348379 -5.869026 -5.669518
Fe -6.812721 -7.142849 -2.963426
%ENDBLOCK POSITIONS_ABS

