#######################################################
#CASTEP cell file: refined_structures-pbe/046-2LiFeSO4F-200804-033623-3cb438.cell
#Created using the Atomic Simulation Environment (ASE)#
#######################################################

%BLOCK LATTICE_CART
 5.036869 -0.002680  0.029387
-1.034636  5.088250 -0.019815
-0.029928  2.290228  8.196468
%ENDBLOCK LATTICE_CART

%BLOCK POSITIONS_ABS
Li -0.019143  2.436353  4.310247
Li  3.991448  4.939445  3.895793
O  0.281848  3.253215  0.776241
O  0.461442  3.908587  3.105420
O  2.034006  0.423438  1.392264
O  2.488633  3.620005  1.775848
O  3.690457  4.122582  7.429799
O  3.510863  3.467210  5.100620
O  1.938299  6.952360  6.813775
O  1.483672  3.755793  6.430191
F -0.338852  6.091618  5.206450
F  4.311157  1.284179  2.999590
S  1.080267  4.092440  1.777537
S  2.892038  3.283358  6.428503
Fe  3.568940  1.889583  1.306702
Fe  0.403365  5.486214  6.899338
%ENDBLOCK POSITIONS_ABS

