#######################################################
#CASTEP cell file: refined_structures-pbe/047-2LiFeSO4F-200804-022029-e21af5.cell
#Created using the Atomic Simulation Environment (ASE)#
#######################################################

%BLOCK LATTICE_CART
 5.106991  0.042901  0.066255
-1.692121  6.459932  0.022418
-1.692121 -2.622819  5.903562
%ENDBLOCK LATTICE_CART

%BLOCK POSITIONS_ABS
Li  2.723414  0.637692  2.910356
Li  0.169918  2.373184  1.739596
O -1.376577  1.532152  4.190628
O -0.485661  4.198649  0.617826
O -0.178539  2.820409  5.852520
O  1.515776  3.015932  0.108862
O  1.176919  3.218279  3.145866
O  2.067834 -1.132815  4.117003
O -2.732034  4.164649  4.935098
O  4.069271 -1.113277  2.829570
F  1.245933  0.624266  1.661774
F  3.799429  1.282305  1.282706
S -0.992469  1.562003  5.592781
S  1.561027  4.485464  3.746837
Fe  0.719620 -1.503825  5.694973
Fe -1.833875  5.790284  0.924969
%ENDBLOCK POSITIONS_ABS

