#######################################################
#CASTEP cell file: refined_structures-pbe/048-2LiFeSO4F-200804-031711-eb8ddc.cell
#Created using the Atomic Simulation Environment (ASE)#
#######################################################

%BLOCK LATTICE_CART
 5.231422  0.394432  0.580351
 2.159246  7.035801  0.093088
 2.711519  3.888500  5.471034
%ENDBLOCK LATTICE_CART

%BLOCK POSITIONS_ABS
Li  5.097114  6.856899  3.803662
Li  5.005072  4.461833  2.340811
O  5.137577  5.139937  0.552611
O  5.766265 10.033518  5.236348
O  6.775123  8.202583  3.994254
O  5.698411  3.355765  3.929824
O  4.964609  6.178795  5.591862
O  4.335921  1.285214  0.908125
O  3.327063  3.116149  2.150219
O  4.403775  7.962967  2.214648
F  3.656896  5.624405  3.131092
F  6.445290  5.694327  3.013381
S  7.100541  9.391420  4.831057
S  3.001645  1.927312  1.313415
Fe  2.579664  6.827927  1.787863
Fe  7.522522  4.490805  4.356609
%ENDBLOCK POSITIONS_ABS

