#######################################################
#CASTEP cell file: refined_structures-pbe/049-2LiFeSO4F-200804-014034-a067cc.cell
#Created using the Atomic Simulation Environment (ASE)#
#######################################################

%BLOCK LATTICE_CART
 5.874289 -0.119701  0.034214
-1.130504  5.305771 -0.210881
-3.209501  1.701317  7.675390
%ENDBLOCK LATTICE_CART

%BLOCK POSITIONS_ABS
Li  1.800530  3.226824  4.715505
Li -0.266246  3.660563  2.783217
O  1.662584  4.159734  2.987320
O  3.380018  0.603573  1.661188
O  2.601831  3.598986  0.801297
O -1.856153  4.720556  2.489745
O -0.128301  2.727653  4.511402
O -1.845735  6.283814  5.837534
O -1.067548  3.288401  6.697425
O  3.390436  2.166832  5.008977
F -0.218130  2.761374  1.127869
F  1.752414  4.126013  6.370853
S  2.664969  4.581440  1.987520
S -1.130685  2.305947  5.511202
Fe  3.837388  1.979691  0.297668
Fe -2.303104  4.907696  7.201055
%ENDBLOCK POSITIONS_ABS

