#######################################################
#CASTEP cell file: refined_structures-pbe/050-2LiFeSO4F-200804-022154-9da9fb.cell
#Created using the Atomic Simulation Environment (ASE)#
#######################################################

%BLOCK LATTICE_CART
 6.169661  0.024053  0.002561
 0.051340  4.615407 -0.018025
-3.181731 -5.091765  7.368050
%ENDBLOCK LATTICE_CART

%BLOCK POSITIONS_ABS
Li -1.591890 -2.493059  5.850242
Li  4.631160  2.040754  1.502344
O  1.497760 -1.325508  2.608681
O  0.316945  1.251391  2.092261
O  2.794291  1.255105  2.128620
O  1.575733  2.370663  0.346322
O  1.541511  0.873203  4.743905
O  2.722326 -1.703696  5.260324
O  0.244980 -1.707410  5.223966
O  1.463538 -2.822968  7.006264
F -1.539929  0.602284  4.723362
F  4.579200 -1.054589  2.629224
S  1.563621  2.025395  1.752008
S  1.475650 -2.477700  5.600577
Fe  0.021312 -0.181459  3.646859
Fe  3.017958 -0.270846  3.705727
%ENDBLOCK POSITIONS_ABS

