#######################################################
#CASTEP cell file: refined_structures-pbe/051-2LiFeSO4F-200804-030749-10a9e3.cell
#Created using the Atomic Simulation Environment (ASE)#
#######################################################

%BLOCK LATTICE_CART
 7.242968  0.180228  0.470442
-2.982131  5.877176  0.153589
-2.982131 -4.270192  4.041069
%ENDBLOCK LATTICE_CART

%BLOCK POSITIONS_ABS
Li -0.255874  2.161634  3.830295
Li -0.895226  0.057252  1.961596
O  0.796358  3.310125  1.093692
O  4.828498 -0.398049  1.316156
O  3.175674 -1.264433  2.908167
O -0.489926  5.307436  0.817675
O  4.417842  3.431698  1.316860
O -1.775117  1.888920  2.575417
O -0.445810 -2.279947  3.027468
O  3.131558  1.761215  2.445985
F  0.685430  0.719625  2.847493
F  0.046077  0.473502  0.266891
S  0.626181  4.665017  1.633371
S -2.995303  2.603969  2.153219
Fe  1.708796  1.461145  0.914433
Fe  2.348148  0.417437  3.989172
%ENDBLOCK POSITIONS_ABS

