#######################################################
#CASTEP cell file: refined_structures-pbe/052-2LiFeSO4F-200804-021618-f2b2a2.cell
#Created using the Atomic Simulation Environment (ASE)#
#######################################################

%BLOCK LATTICE_CART
 5.819435 -0.155380  0.529594
 0.362238  5.194647 -0.246889
 7.054524  0.303515  8.247541
%ENDBLOCK LATTICE_CART

%BLOCK POSITIONS_ABS
Li  8.005421  4.369819  5.644070
Li  5.230776  0.972964  2.886177
O  7.097842  0.277423  2.153014
O  3.608507  0.120142  2.294527
O  2.790641  3.502369  0.996395
O  7.958473  4.018299  3.776058
O  6.138355  5.065359  6.377232
O  9.627690  5.222640  6.235719
O 10.445556  1.840413  7.533851
O  5.277724  1.324483  4.754188
F  7.737413  2.973293  6.906498
F  5.498785  2.369489  1.623748
S  2.659011  4.672967  1.983319
S 10.577187  0.669815  6.546928
Fe 11.661064  3.394809  8.243793
Fe  1.575133  1.947974  0.286454
%ENDBLOCK POSITIONS_ABS

