#######################################################
#CASTEP cell file: refined_structures-pbe/053-2LiFeSO4F-200804-023459-a8561d.cell
#Created using the Atomic Simulation Environment (ASE)#
#######################################################

%BLOCK LATTICE_CART
 5.179266 -0.056331 -0.101101
-0.130787  5.849116 -0.127838
 5.341293  4.023202  7.407343
%ENDBLOCK LATTICE_CART

%BLOCK POSITIONS_ABS
Li  6.094235  6.279846  2.212151
Li  4.295537  3.536142  4.966253
O  4.885335  5.379386  5.844877
O  6.912359  6.631648  6.398487
O  5.073712  7.760945  5.334610
O  6.388317  6.089531  4.082909
O  5.504436  4.436601  1.333527
O  3.477413  3.184339  0.779916
O  5.316059  2.055043  1.843794
O  4.001454  3.726457  3.095494
F  2.349553  6.227534  1.069736
F  8.040218  3.588454  6.108667
S  5.797691  6.492421  5.349911
S  4.592080  3.323567  1.828492
Fe  8.509965  5.447766  7.057805
Fe  1.879806  4.368221  0.120598
%ENDBLOCK POSITIONS_ABS

