#######################################################
#CASTEP cell file: refined_structures-pbe/054-2LiFeSO4F-200804-032924-06d7b3.cell
#Created using the Atomic Simulation Environment (ASE)#
#######################################################

%BLOCK LATTICE_CART
 5.563561 -0.090105  0.125703
-3.370658  5.265389 -0.054765
-5.661549  0.120548  7.100749
%ENDBLOCK LATTICE_CART

%BLOCK POSITIONS_ABS
Li  0.108724  3.842470  2.183978
Li -3.577369  1.453362  4.987710
O -1.420742  5.101845  1.463608
O -3.307704  1.610773  3.121748
O  0.624676  1.917685  1.485889
O  3.011234  1.970539  0.986523
O -2.047903  0.193986  5.708079
O -0.160941  3.685059  4.049940
O -4.093321  3.378146  5.685799
O -6.479879  3.325293  6.185165
F -4.874767  0.624908  5.980015
F  1.406122  4.670923  1.191673
S  1.936968  1.296499  1.849349
S -5.405614  3.999332  5.322339
Fe -0.887081  1.273106  7.194353
Fe -2.581564  4.022726 -0.022666
%ENDBLOCK POSITIONS_ABS

