#######################################################
#CASTEP cell file: refined_structures-pbe/055-LiFeSO4F triplite-ordered-9.cell
#Created using the Atomic Simulation Environment (ASE)#
#######################################################

%BLOCK LATTICE_CART
-0.002443 -6.478718 -0.010992
-6.565532 -3.241572 -0.051448
-1.701594 -3.230921 -8.724955
%ENDBLOCK LATTICE_CART

%BLOCK POSITIONS_ABS
Li -7.712379 -7.954537 -8.661513
Li -0.557190 -4.996673 -0.125883
Li -1.569909 -5.742810 -5.888053
Li -6.699660 -7.208400 -2.899343
O -2.233442 -7.323136 -2.696112
O -1.863835 -4.171187 -1.742150
O -6.036127 -5.628074 -6.091283
O -6.405734 -8.780023 -7.045245
O -3.769205 -3.455558 -3.116327
O -0.386936 -6.769489 -1.239007
O -4.500364 -9.495652 -5.671069
O -7.882633 -6.181721 -7.548388
O -3.543539 -2.684362 -0.799048
O -6.980656 -9.150032 -3.591241
O -4.726030 -10.266848 -7.988348
O -1.288913 -3.801178 -5.196155
O -4.121458 -4.983791 -1.269267
O -6.582957 -5.020997 -3.177262
O -4.148111 -7.967419 -7.518128
O -1.686612 -7.930213 -5.610134
F -2.450126 -5.737774 -7.765300
F -3.478493 -5.859963 -5.344511
F -5.819443 -7.213436 -1.022096
F -4.791076 -7.091247 -3.442884
S -0.741130 -7.022661 -2.644128
S -3.287476 -3.846892 -1.730688
S -7.528439 -5.928549 -6.143268
S -4.982093 -9.104318 -7.056708
Fe -4.905709 -4.825910 -4.379840
Fe -3.363860 -8.125300 -4.407556
Fe -4.372543 -5.837743 -7.456883
Fe -3.897026 -7.113467 -1.330513
%ENDBLOCK POSITIONS_ABS

