#######################################################
#CASTEP cell file: refined_structures-pbe/056-LiFeSO4F triplite-ordered-12.cell
#Created using the Atomic Simulation Environment (ASE)#
#######################################################

%BLOCK LATTICE_CART
-0.010486 -6.453415 -0.066804
-6.623901 -3.237208 -0.014104
-1.636049 -3.313689 -8.739985
%ENDBLOCK LATTICE_CART

%BLOCK POSITIONS_ABS
Li -5.974695 -5.238096 -0.269676
Li -0.526345 -5.041527 -0.316479
Li -6.695979 -7.100282 -2.750324
Li -4.065242 -7.108435 -1.327565
O -2.237808 -7.386420 -2.770516
O -1.882274 -4.158704 -1.714529
O -6.053304 -5.608805 -6.093040
O -6.340895 -8.842718 -7.056205
O -3.810433 -3.505329 -3.072075
O -0.329377 -6.719914 -1.425094
O -4.459042 -9.530249 -5.649623
O -7.916221 -6.139744 -7.542873
O -3.589394 -2.695545 -0.769918
O -7.150472 -9.160651 -3.751787
O -4.614215 -10.284520 -7.983918
O -1.248622 -3.782413 -5.238649
O -4.113278 -5.038309 -1.235254
O -6.628637 -5.037569 -3.211316
O -4.105217 -7.980927 -7.484831
O -1.672005 -7.918405 -5.640264
F -2.347886 -5.740418 -7.658010
F -3.483611 -5.916211 -5.342259
F -5.922082 -7.030225 -0.982002
F -4.891106 -7.080970 -3.512107
S -0.789349 -7.044973 -2.779269
S -3.322305 -3.873278 -1.663931
S -7.535145 -5.893972 -6.163687
S -4.893322 -9.157605 -7.059602
Fe -4.899545 -4.900334 -4.302719
Fe -3.443653 -8.173111 -4.330880
Fe -1.392903 -5.788561 -5.761943
Fe -4.356558 -5.877093 -7.533967
%ENDBLOCK POSITIONS_ABS

