#######################################################
#CASTEP cell file: refined_structures-pbe/057-LiFeSO4F triplite-ordered-20.cell
#Created using the Atomic Simulation Environment (ASE)#
#######################################################

%BLOCK LATTICE_CART
 0.032454 -6.396814 -0.029726
-6.632330 -3.164516  0.034886
-1.571819 -3.235760 -8.711895
%ENDBLOCK LATTICE_CART

%BLOCK POSITIONS_ABS
Li -0.650485 -4.846096 -0.118295
Li -4.230428 -5.754887 -7.533269
Li -6.698299 -7.010449 -2.651142
Li -4.026699 -7.059726 -1.083350
O -2.196169 -7.298007 -2.726773
O -1.900700 -4.124973 -1.696082
O -5.963675 -5.525559 -5.980535
O -6.261691 -8.709987 -7.020196
O -3.766732 -3.460938 -3.126997
O -0.289380 -6.641869 -1.369803
O -4.393293 -9.377603 -5.617993
O -7.755616 -6.091197 -7.514257
O -3.612149 -2.610772 -0.827235
O -7.081436 -9.019374 -3.635367
O -4.546818 -10.174507 -7.934745
O -1.176854 -3.771959 -5.240466
O -4.163291 -4.931048 -1.249744
O -6.651443 -4.967044 -3.134926
O -4.025464 -7.843773 -7.480198
O -1.562812 -7.867078 -5.679280
F -2.271716 -5.607141 -7.589518
F -3.322551 -5.978966 -5.177382
F -5.946183 -6.846933 -0.832040
F -4.925950 -6.943683 -3.449646
S -0.745298 -6.991138 -2.749965
S -3.321466 -3.764828 -1.689171
S -7.419716 -5.815840 -6.097697
S -4.784113 -9.028237 -7.044790
Fe -4.835844 -4.904108 -4.258910
Fe -5.913255 -4.791191 -0.054807
Fe -3.428360 -7.992177 -4.320552
Fe -1.307416 -5.766610 -5.710731
%ENDBLOCK POSITIONS_ABS

