#######################################################
#CASTEP cell file: refined_structures-pbe/058-LiFeSO4F triplite-ordered-11.cell
#Created using the Atomic Simulation Environment (ASE)#
#######################################################

%BLOCK LATTICE_CART
-0.008806 -6.377282 -0.086468
-6.709184 -3.196459  0.024075
-1.592658 -3.305135 -8.752457
%ENDBLOCK LATTICE_CART

%BLOCK POSITIONS_ABS
Li -6.010262 -4.863244 -0.060803
Li -2.300387 -8.015633 -8.754047
Li -4.193340 -5.819634 -7.755221
Li -4.117309 -7.059243 -1.059629
O -2.195642 -7.376048 -2.785655
O -1.968974 -4.173633 -1.726496
O -6.115007 -5.502828 -6.029195
O -6.341675 -8.705244 -7.088354
O -3.849347 -3.479174 -3.121885
O -0.311898 -6.692189 -1.409025
O -4.461302 -9.399703 -5.692965
O -7.998751 -6.186687 -7.405825
O -3.648756 -2.661164 -0.818603
O -7.201920 -9.078056 -3.692345
O -4.661892 -10.217713 -7.996247
O -1.108729 -3.800820 -5.122505
O -4.218643 -4.988993 -1.263846
O -6.647976 -5.004808 -3.193131
O -4.092006 -7.889883 -7.551004
O -1.662673 -7.874069 -5.621719
F -2.251474 -5.844767 -7.753053
F -3.353299 -5.869784 -5.211784
F -6.059175 -7.034109 -1.061797
F -4.957350 -7.009092 -3.603066
S -0.762499 -7.024094 -2.757367
S -3.422407 -3.826792 -1.690412
S -7.548150 -5.854782 -6.057483
S -4.888242 -9.052084 -7.124438
Fe -4.867532 -4.825666 -4.425572
Fe -3.443117 -8.053211 -4.389278
Fe -1.384392 -5.752944 -5.923813
Fe -6.926257 -7.125932 -2.891037
%ENDBLOCK POSITIONS_ABS

