#######################################################
#CASTEP cell file: refined_structures-pbe/059-2LiFeSO4F-200804-053953-4369e2.cell
#Created using the Atomic Simulation Environment (ASE)#
#######################################################

%BLOCK LATTICE_CART
 5.246644 -0.227407 -0.159573
 2.997651  7.133056 -0.287102
 4.860753  4.663043  5.497036
%ENDBLOCK LATTICE_CART

%BLOCK POSITIONS_ABS
Li  7.035081  6.193977  1.326198
Li  6.069967  5.374716  3.724163
O  4.758136  3.168269  1.072384
O 10.760518  6.619376  4.816476
O  7.759622  7.856658  0.810400
O  6.795487  1.944638  1.585617
O  8.346912  8.400424  3.977977
O  2.344530  4.949317  0.233885
O  5.345426  3.712035  4.239960
O  6.309561  9.624055  3.464744
F  7.645053  5.040257  2.743473
F  5.459996  6.528436  2.306888
S  5.510675  1.923841  0.757040
S  7.594373  9.644852  4.293321
Fe  3.013070  3.681615  1.941757
Fe 10.091978  7.887078  3.108603
%ENDBLOCK POSITIONS_ABS

