#######################################################
#CASTEP cell file: refined_structures-pbe/060-4LiFeSO4F-200804-073849-1130c3.cell
#Created using the Atomic Simulation Environment (ASE)#
#######################################################

%BLOCK LATTICE_CART
 7.821195  0.263199  0.011989
 2.508973  7.412518  0.011989
-5.880240 -4.369247  8.807485
%ENDBLOCK LATTICE_CART

%BLOCK POSITIONS_ABS
Li  3.261160  3.556414  3.401055
Li  0.103733  1.210323  5.430407
Li -4.099602 -3.344949  7.757599
Li  8.835605  6.266412  1.073863
O  7.260233  2.802162  1.584483
O  1.630168  1.779392  0.803927
O  1.465561  3.285187  2.720637
O  8.739779  4.357001  0.506039
O -0.328119 -2.836279  7.246980
O  2.275815  2.259132  8.027535
O  0.881579  2.851266  6.110825
O -2.243767 -3.804201  8.325424
O  2.810451  6.256662  1.708472
O  3.374404  5.480316  3.938702
O  0.180563  0.385118  3.589243
O  2.348850 -0.412138  2.805492
O -2.351581  2.421071  7.122990
O -1.771002  1.657079  4.892761
O  4.029089  3.244722  5.242219
O  4.166723  0.938612  6.025971
F  4.316473  2.410934  2.375860
F  0.895949 -0.130648  6.455603
F  2.922069 -1.751211  6.742646
F  5.283415  0.003361  2.088816
S  0.878957  2.916763  1.434885
S  1.403607  3.306598  7.396578
S  0.907550 -0.771183  2.966655
S  4.926411  2.214987  5.864807
Fe  6.238810  1.639698  2.849082
Fe  1.079645 -2.193762  5.982381
Fe  3.375394  0.782789  1.577927
Fe  2.726399  0.300560  7.253536
%ENDBLOCK POSITIONS_ABS

