#######################################################
#CASTEP cell file: refined_structures-pbe/061-2LiFeSO4F-200804-015525-43dc3f.cell
#Created using the Atomic Simulation Environment (ASE)#
#######################################################

%BLOCK LATTICE_CART
 4.802849  0.000000  0.000000
 0.000000  5.462516 -0.001755
 0.000000 -2.720162  7.602310
%ENDBLOCK LATTICE_CART

%BLOCK POSITIONS_ABS
Li  0.046563  1.078623  7.513620
Li  2.447988  1.663731  0.086935
O  3.903037  4.450619  1.613463
O  1.828233  0.313249  1.373126
O  1.875362  3.991270  2.937330
O  1.948338  3.494709  0.534142
O  1.501613 -1.708264  5.987092
O  4.229658  2.429105  6.227429
O  4.276786 -1.248916  4.663226
O  4.349762 -0.752355  7.066413
F  1.565382  1.103227  4.535661
F  3.966807  1.639127  3.064894
S  2.418229  4.425658  1.589302
S  0.016805 -1.683304  6.011253
Fe  2.732149  2.652292  4.387733
Fe  0.330725  0.090062  3.212822
%ENDBLOCK POSITIONS_ABS

