#######################################################
#CASTEP cell file: refined_structures-pbe/062-2LiFeSO4F-200804-040408-39e96a.cell
#Created using the Atomic Simulation Environment (ASE)#
#######################################################

%BLOCK LATTICE_CART
 4.855639  0.000000 -0.034707
 0.000000  4.789063  0.000000
 2.195425  0.000000  7.952117
%ENDBLOCK LATTICE_CART

%BLOCK POSITIONS_ABS
Li  4.664674  0.092885  3.990719
Li  2.386390  2.487416  3.926692
O  1.402466  0.949000  1.606044
O  0.945817  3.646510  2.808585
O  3.009964  3.902936  1.530755
O  0.835816  3.680090  0.408414
O  5.648598  3.343531  6.311367
O  6.105247  1.251979  5.108826
O  4.041100  1.508405  6.386656
O  6.215248  1.285559  7.508997
F  3.248932  3.934071  4.782271
F  3.802132  1.539539  3.135140
S  1.591733  4.275465  1.599439
S  5.459330  1.880934  6.317972
Fe  2.607226  4.610336  6.507104
Fe  4.443838  2.215805  1.410307
%ENDBLOCK POSITIONS_ABS

