#######################################################
#CASTEP cell file: refined_structures-pbe/063-4LiFeSO4F-200804-080010-ea4a7b.cell
#Created using the Atomic Simulation Environment (ASE)#
#######################################################

%BLOCK LATTICE_CART
 5.387117 -0.000002  0.000000
 0.000002  5.387117  0.000000
 0.000000  0.000000 13.215853
%ENDBLOCK LATTICE_CART

%BLOCK POSITIONS_ABS
Li  3.548532  2.382533  9.327902
Li  1.838588  3.004582  2.719976
Li  3.004584  3.548530 12.631866
Li  2.382535  1.838586  6.023939
O  2.842144  1.452513 13.123172
O -0.105527  1.350311  0.035139
O  4.167525  2.234898 11.303916
O  4.060588  5.187546 11.801147
O  2.544975  3.934603  6.515246
O  0.105529  4.036806  6.643066
O  1.219594  3.152217  4.695989
O  1.326531  0.199570  5.193221
O  3.934605  2.842142  3.211282
O  4.036806 -0.105529  3.339102
O  3.152219  4.167523  1.392026
O  0.199572  4.060586  1.889258
O  1.452515  2.544973  9.819209
O  1.350311  0.105527  9.947029
O  2.234900  1.219592  7.999953
O  5.187548  1.326529  8.497184
F  4.080986  1.173471  5.882090
F  1.306134  4.213644 12.490017
F  4.213646  4.080984  9.186053
F  1.173473  1.306132  2.578127
S  4.110819  1.172095 12.381758
S  1.276300  4.215020  5.773831
S  4.215022  4.110817  2.469868
S  1.172097  1.276298  9.077794
Fe  0.181758  3.985677 10.800159
Fe  5.205362  1.401438  4.192232
Fe  1.401440  0.181756  0.888269
Fe  3.985679  5.205360  7.496196
%ENDBLOCK POSITIONS_ABS

