#######################################################
#CASTEP cell file: refined_structures-pbe/064-2LiFeSO4F-200804-022732-331650.cell
#Created using the Atomic Simulation Environment (ASE)#
#######################################################

%BLOCK LATTICE_CART
 5.063644 -0.096335 -0.000000
 6.473716  7.384752 -0.000000
-5.768688 -3.644211  5.562933
%ENDBLOCK LATTICE_CART

%BLOCK POSITIONS_ABS
Li  1.921456  3.635434  3.888232
Li  3.748252 -0.153268  1.674700
O  2.098615  0.794850  2.411548
O  2.125065 -0.272953  4.592313
O  0.017463 -0.049629  3.363792
O  1.097411  1.932254  4.312153
O  5.335472  4.487225  3.151385
O  5.361923  3.419424  0.970619
O  3.254323  3.642747  2.199141
O  9.397917  5.528297  1.250779
F -4.468201 -2.425304  5.137271
F  3.832308  1.170739  0.425662
S  1.335025  0.638788  3.684147
S  4.571886  4.331165  1.878786
Fe -1.034755 -1.304907  4.636160
Fe  2.202108  2.387470  0.926773
%ENDBLOCK POSITIONS_ABS

