#######################################################
#CASTEP cell file: refined_structures-pbe/065-2LiFeSO4F-200804-024954-dfd5e5.cell
#Created using the Atomic Simulation Environment (ASE)#
#######################################################

%BLOCK LATTICE_CART
 5.283433 -0.014388 -0.025739
 0.988677  5.055358 -0.011188
 1.390195  6.638825  8.495124
%ENDBLOCK LATTICE_CART

%BLOCK POSITIONS_ABS
Li  5.042170  3.637764  3.377009
Li  2.620135  8.042031  5.081188
O  1.297954  5.920616  1.650911
O  3.619491  1.142506  0.204426
O  3.961294  2.542910  2.145270
O  4.354007  5.237406  2.388856
O  6.364351  5.759180  6.807286
O  4.042814 10.537290  8.253772
O  3.701011  9.136886  6.312928
O  3.308298  6.442390  6.069342
F  6.043413  8.035665  5.110042
F  1.618892  3.644131  3.348155
S  5.142078  6.229581  1.573907
S  2.520227  5.450215  6.884291
Fe  5.085440  7.463969  6.721748
Fe  2.576865  4.215826  1.736449
%ENDBLOCK POSITIONS_ABS

