#######################################################
#CASTEP cell file: refined_structures-pbe/066-2LiFeSO4F-200804-053427-566b6e.cell
#Created using the Atomic Simulation Environment (ASE)#
#######################################################

%BLOCK LATTICE_CART
 5.267960  0.035961 -0.069675
 0.898372  5.038873 -0.044529
 0.542952  1.691563  8.486882
%ENDBLOCK LATTICE_CART

%BLOCK POSITIONS_ABS
Li  5.043302  3.728940  3.318680
Li  1.665982  3.037457  5.053998
O  2.408486  1.436217  5.998991
O  2.713780  4.128200  6.316154
O  6.366821  5.875139  6.733048
O  3.111711  5.603609  8.190530
O  4.300798  5.330180  2.373687
O  3.995504  2.638196  2.056524
O  0.342463  0.891258  1.639630
O  3.597572  1.162788  0.182148
F  5.072801  3.084110  5.064565
F  1.636483  3.682287  3.308113
S  2.538507  5.518142  6.826947
S  4.170777  1.248255  1.545731
Fe  4.151226  2.507525  6.695864
Fe  2.558058  4.258872  1.676814
%ENDBLOCK POSITIONS_ABS

