#######################################################
#CASTEP cell file: refined_structures-pbe/067-4LiFeSO4F-200804-063402-6f4b47.cell
#Created using the Atomic Simulation Environment (ASE)#
#######################################################

%BLOCK LATTICE_CART
10.734595 -0.211769 -0.000000
 7.267752  7.902920 -0.000000
-9.001174 -3.845576  5.202415
%ENDBLOCK LATTICE_CART

%BLOCK POSITIONS_ABS
Li  7.825442  1.353569  0.631932
Li  2.613432 -0.873161  4.570483
Li  2.458152  1.459461  1.969275
Li  6.247297  3.078300  3.233139
O -0.701121 -0.539493  3.844155
O -0.705122 -2.958154  3.941009
O  1.300000 -1.738005  3.261442
O  6.661796  6.057226  1.758839
O  9.875676  3.979237  1.358260
O 11.626101  2.310120  1.261406
O  9.358323  1.704756  1.940973
O  0.019120  3.219273  3.443576
O  2.932763  3.411975  3.959467
O  2.928746  0.993298  3.862614
O  4.933865  2.213455  4.542180
O 12.029093  5.951342  0.842368
O  4.508368  4.085122  1.242948
O  6.258814  2.416005  1.339801
O  3.991034  1.810649  0.660234
O -3.614756 -0.732188  4.360046
F  7.735058 -0.320988  1.558303
F  3.885903 -1.965465  3.644111
F  2.367761 -0.215104  1.042904
F  7.519779  1.985995  4.159511
S -0.192901 -1.781696  3.177660
S 10.421928  2.753283  2.024754
S  3.440956  2.169757  4.625962
S  5.054649  2.859176  0.576453
Fe 10.131435  5.923925  1.812841
Fe -2.283104  0.620055  3.389574
Fe  4.764131  6.029802  0.788366
Fe  1.350782  4.571515  4.414048
%ENDBLOCK POSITIONS_ABS

