#######################################################
#CASTEP cell file: refined_structures-pbe/068-2LiFeSO4F-200804-023710-6e2b99.cell
#Created using the Atomic Simulation Environment (ASE)#
#######################################################

%BLOCK LATTICE_CART
 4.970329 -0.118947 -0.048455
 4.649825  9.379138  0.001456
 3.976498  4.549388  4.375615
%ENDBLOCK LATTICE_CART

%BLOCK POSITIONS_ABS
Li  3.364858  4.113885  3.302836
Li  5.261465  9.814641  1.074236
O  4.380538  3.662237  1.626582
O  6.045735  5.462201  1.519149
O  6.443864  3.316240  0.409553
O  6.471008  3.497590  2.858334
O  9.216114 10.147343  2.702034
O  7.550917  8.347379  2.809467
O  7.152788 10.493339  3.919063
O  7.125644 10.311989  1.470282
F  5.062696  8.131501  0.313957
F  8.533956  5.678078  4.014659
S  5.847998  3.995582  1.590478
S  7.748654  9.813998  2.738139
Fe  3.301660  2.553964  0.110804
Fe 10.294992 11.255615  4.217812
%ENDBLOCK POSITIONS_ABS

