#######################################################
#CASTEP cell file: refined_structures-pbe/069-2LiFeSO4F-200804-030811-236851.cell
#Created using the Atomic Simulation Environment (ASE)#
#######################################################

%BLOCK LATTICE_CART
 4.441921  0.000000 -0.069235
 0.000000  6.333612  0.000000
-1.694585  0.000000  7.336474
%ENDBLOCK LATTICE_CART

%BLOCK POSITIONS_ABS
Li  3.806341  0.313470  0.836099
Li -1.059005  3.480276  6.431140
O  0.712617  4.784105  0.531832
O  0.447408  4.549109  2.934477
O  2.358993  5.755845  2.020339
O  2.212459  3.320544  1.801927
O  2.034719  1.617299  6.735407
O  2.299928  1.382303  4.332762
O  0.388343  2.589039  5.246900
O  0.534877  0.153738  5.465312
F  2.951989  4.375917  4.758717
F -0.204654  1.209111  2.508522
S  1.447061  4.591717  1.804057
S  1.300275  1.424912  5.463182
Fe -0.813985  6.066291  3.867055
Fe  3.561320  2.899485  3.400184
%ENDBLOCK POSITIONS_ABS

