#######################################################
#CASTEP cell file: refined_structures-pbe/070-4LiFeSO4F-200804-105752-b6deb5.cell
#Created using the Atomic Simulation Environment (ASE)#
#######################################################

%BLOCK LATTICE_CART
 6.459313 -0.197073  0.152525
-2.416828  8.930690 -0.051970
 2.199263 -4.684103  7.730922
%ENDBLOCK LATTICE_CART

%BLOCK POSITIONS_ABS
Li  4.327962 -2.346783  7.548586
Li  1.913785  6.396298  0.282890
Li  3.140849  1.736726  5.376658
Li  3.100898  2.312788  2.454819
O  3.472878  3.334700  4.192936
O  2.303101  5.176622  5.304813
O  3.765474  5.589746  3.376264
O  4.693403  4.959333  5.549271
O  2.768870  0.714815  3.638541
O  3.938647 -1.127108  2.526664
O  2.476273 -1.540232  4.455213
O  1.548344 -0.909818  2.282206
O  5.607625  3.048005  1.474469
O  0.402584  5.339955  1.217902
O  1.593918  3.255074  1.495684
O  0.216007  4.078383  3.307301
O  0.634122  1.001509  6.357008
O  5.839164 -1.290440  6.613574
O  4.647829  0.794441  6.335793
O  6.025740 -0.028869  4.524176
F  2.755750  2.583698  7.058857
F  3.485997  1.465816  0.772619
F  3.570565  6.939009  0.944878
F  2.671182 -2.889494  6.886599
S  3.540148  4.752919  4.584483
S  2.701600 -0.703405  3.246994
S  0.339835  3.966671  1.827575
S  5.901912  0.082843  6.003901
Fe  0.318806  5.367265  4.823781
Fe  5.922941 -1.317750  3.007695
Fe  7.231398 -2.658225  7.435781
Fe -0.989650  6.707740  0.395696
%ENDBLOCK POSITIONS_ABS

