#######################################################
#CASTEP cell file: refined_structures-pbe/071-2LiFeSO4F-200804-042843-d91665.cell
#Created using the Atomic Simulation Environment (ASE)#
#######################################################

%BLOCK LATTICE_CART
 4.399161  0.083654 -0.004313
-3.001496  4.844735 -0.002423
-3.892252 -1.304871  8.948910
%ENDBLOCK LATTICE_CART

%BLOCK POSITIONS_ABS
Li -1.174864  1.360561  0.839350
Li -1.319723  2.262957  8.102824
O  0.337293 -0.155097  5.776991
O -2.607376 -0.813700  7.645216
O -4.469561  0.684554  8.022181
O -2.583534  1.463687  6.744378
O -2.831880  3.778615  3.165183
O  0.112789  4.437218  1.296958
O  1.974974  2.938964  0.919993
O  0.088948  2.159830  2.197796
F -2.180346  1.012154  3.925074
F -0.314241  2.611363  5.017100
S -3.419613  0.260354  7.079118
S  0.925026  3.363164  1.863056
Fe -2.494156  2.717244  5.063589
Fe -0.000430  0.906273  3.878585
%ENDBLOCK POSITIONS_ABS

