#######################################################
#CASTEP cell file: refined_structures-pbe/072-2LiFeSO4F-200804-020905-dbb880.cell
#Created using the Atomic Simulation Environment (ASE)#
#######################################################

%BLOCK LATTICE_CART
 5.110667  0.016994 -0.023761
 4.437650  6.607367 -0.026617
-1.535980 -0.725179  5.580793
%ENDBLOCK LATTICE_CART

%BLOCK POSITIONS_ABS
Li  7.571616  5.644823  4.389214
Li  0.440721  0.254359  1.141202
O  5.254091  3.488633  4.591069
O  5.638531  5.809014  4.016219
O  3.645093  4.681697  3.170040
O  5.829571  4.096243  2.292104
O  2.758246  2.410550  0.939347
O  2.373807  0.090169  1.514197
O  4.367244  1.217485  2.360375
O  2.182766  1.802939  3.238312
F  3.998110  5.393383  0.407420
F  4.014227  0.505800  5.122996
S  5.088903  4.522930  3.499082
S  2.923435  1.376253  2.031334
Fe  7.559309  4.544965  1.220616
Fe  0.453029  1.354218  4.309800
%ENDBLOCK POSITIONS_ABS

