#######################################################
#CASTEP cell file: refined_structures-pbe/073-2LiFeSO4F-200804-052616-829a98.cell
#Created using the Atomic Simulation Environment (ASE)#
#######################################################

%BLOCK LATTICE_CART
 5.050536 -0.050762  0.014117
-1.278536  6.015000 -0.041675
-0.640673 -0.698257  6.484408
%ENDBLOCK LATTICE_CART

%BLOCK POSITIONS_ABS
Li  2.112574  3.707544  3.626760
Li  1.018753  1.558436  2.830090
O -1.053779  4.287023  3.523071
O  0.155596 -0.075130  5.372293
O  0.995669  5.002036  4.630393
O -0.638506  3.584710  5.794611
O  4.185106  0.978958  2.933779
O  2.975731  5.341111  1.084557
O  2.135657  0.263945  1.826457
O  3.769832  1.681271  0.662239
F  2.007827  2.015479  4.362845
F  1.123500  3.250502  2.094005
S -0.460681  4.709375  4.830609
S  3.592008  0.556606  1.626241
Fe -0.269197  4.434871  1.403145
Fe  3.400523  0.831110  5.053705
%ENDBLOCK POSITIONS_ABS

