#######################################################
#CASTEP cell file: refined_structures-pbe/074-4LiFeSO4F-200804-055930-edf2c1.cell
#Created using the Atomic Simulation Environment (ASE)#
#######################################################

%BLOCK LATTICE_CART
 7.777444  0.000000  0.000000
 0.000000  5.882554  0.000000
 0.000000  0.000000  9.721340
%ENDBLOCK LATTICE_CART

%BLOCK POSITIONS_ABS
Li  7.650198  1.853635  6.394557
Li  0.127246  4.794912  3.326783
Li  0.127246  1.853635  1.533887
Li  7.650198  4.794912  8.187453
O  6.127934  4.519275  4.421922
O  4.968030  2.734245  3.180488
O  4.148180  3.484599  5.360074
O  6.168713  2.158296  5.156239
O  1.649510  1.577998  5.299418
O  2.809414  5.675522  6.540851
O  3.629264  0.543322  4.361265
O  1.608731  5.099573  4.565100
O  1.649510  4.519275  9.282592
O  2.809414  2.734245  8.041158
O  3.629264  3.484599  0.499404
O  1.608731  2.158296  0.295570
O  6.127934  1.577998  0.438748
O  4.968030  5.675522  1.680182
O  4.148180  0.543322  9.221935
O  6.168713  5.099573  9.425770
F  7.391193  3.590975  1.980511
F  0.386252  0.649698  7.740829
F  0.386252  3.590975  6.841181
F  7.391193  0.649698  2.880159
S  5.351865  3.257520  4.555861
S  2.425579  0.316243  5.165479
S  2.425579  3.257520  9.416531
S  5.351865  0.316243  0.304809
Fe  5.510623  3.572267  1.281132
Fe  2.266822  0.630990  8.440208
Fe  2.266822  3.572267  6.141801
Fe  5.510623  0.630990  3.579538
%ENDBLOCK POSITIONS_ABS

