#######################################################
#CASTEP cell file: refined_structures-pbe/075-2LiFeSO4F-200804-052925-901933.cell
#Created using the Atomic Simulation Environment (ASE)#
#######################################################

%BLOCK LATTICE_CART
 4.964882  0.021668  0.014125
 0.664100  5.083805  0.043928
-1.677182 -0.616563  8.354571
%ENDBLOCK LATTICE_CART

%BLOCK POSITIONS_ABS
Li  3.208023  2.958036  7.679361
Li  0.743778  1.530874  0.733262
O -0.648489  3.686247  6.158495
O  1.681230  3.940429  6.873073
O  1.151675  4.020647  4.549684
O  0.892879  1.892489  5.759797
O  4.600290  0.802663  2.254128
O  2.270570  0.548481  1.539551
O  2.800126  0.468263  3.862939
O  3.058921  2.596422  2.652826
F  3.065933  1.096480  7.517118
F  0.885867  3.392431  0.895505
S  0.769429  3.358844  5.830802
S  3.182371  1.130066  2.581821
Fe  2.349434  0.346857  5.839704
Fe  1.602367  4.142053  2.572919
%ENDBLOCK POSITIONS_ABS

