#######################################################
#CASTEP cell file: refined_structures-pbe/076-2LiFeSO4F-200804-053401-084d34.cell
#Created using the Atomic Simulation Environment (ASE)#
#######################################################

%BLOCK LATTICE_CART
 5.506417  0.052565  0.108984
-2.113941  6.847896  0.063283
-2.113941 -4.213607  5.398445
%ENDBLOCK LATTICE_CART

%BLOCK POSITIONS_ABS
Li -0.535795  4.548164  1.497958
Li  2.217413 -1.632883  4.546356
O  2.704739  2.645239  2.941628
O  3.657617  3.388702  0.829216
O  1.356835  3.944114  1.359263
O  1.985704  1.623604  0.893541
O -0.048469  0.629003  3.846926
O  0.904408 -1.486975  3.113674
O -1.396374 -1.417940  3.878309
O -0.767504 -0.337781  1.772384
F -0.231688  5.872123  0.164702
F  2.521520 -3.500492  4.752451
S  2.422045  2.896026  1.512075
S -0.331163 -0.645868  3.153225
Fe  1.831040  5.768021  0.243056
Fe -0.922168 -3.426930  4.610777
%ENDBLOCK POSITIONS_ABS

