#######################################################
#CASTEP cell file: refined_structures-pbe/077-2LiFeSO4F-200804-035248-799188.cell
#Created using the Atomic Simulation Environment (ASE)#
#######################################################

%BLOCK LATTICE_CART
 5.307066  0.274160  0.189403
 3.401642  9.083513  0.430352
-2.999121 -0.110969  4.987618
%ENDBLOCK LATTICE_CART

%BLOCK POSITIONS_ABS
Li  2.854793  4.623352  2.803686
Li  4.354354  4.678837  0.309877
O  5.053016  7.199461  2.971614
O  2.924568  8.302359  2.505418
O  3.456119  6.148438  1.492517
O  4.627216  8.182580  0.782731
O  0.656571  2.047243  2.635759
O  2.785019  0.944345  3.101955
O  2.253468  3.098266  4.114856
O  1.082371  1.064124  4.824642
F  3.682028  3.501310  1.575670
F  2.027559  5.745394  4.031703
S  4.033313  7.433675  1.921591
S  1.676274  1.813028  3.685781
Fe  1.356872  7.664065  3.777725
Fe  4.352715  1.582639  1.829648
%ENDBLOCK POSITIONS_ABS

