#######################################################
#CASTEP cell file: refined_structures-pbe/078-2LiFeSO4F-200804-054409-5c283c.cell
#Created using the Atomic Simulation Environment (ASE)#
#######################################################

%BLOCK LATTICE_CART
 5.065895  0.386203  0.214212
 1.165664  5.318749  0.209830
-5.657966 -4.223059  8.251481
%ENDBLOCK LATTICE_CART

%BLOCK POSITIONS_ABS
Li  0.507717  2.048677  4.311067
Li  0.065876 -0.566784  4.364457
O  1.596129  4.320627  1.022652
O  3.600774  3.212245  1.842409
O  1.640153  1.884221  1.337272
O  1.621969  3.359015  3.269772
O -1.022536 -2.838733  7.652872
O -3.027181 -1.730351  6.833115
O -1.066560 -0.402327  7.338252
O -1.048376 -1.877122  5.405752
F -0.410087  0.801269  3.211047
F  0.983680  0.680625  5.464477
S  2.124825  3.174743  1.892375
S -1.551232 -1.692849  6.783149
Fe  0.875126  0.389200  7.400147
Fe -0.301533  1.092693  1.275377
%ENDBLOCK POSITIONS_ABS

