#######################################################
#CASTEP cell file: refined_structures-pbe/079-4LiFeSO4F-200804-081611-06c176.cell
#Created using the Atomic Simulation Environment (ASE)#
#######################################################

%BLOCK LATTICE_CART
 5.102752  0.083106  0.140664
 2.386933  8.360127  0.281110
 3.344774  2.084095 10.311684
%ENDBLOCK LATTICE_CART

%BLOCK POSITIONS_ABS
Li  5.610402  8.622196  7.415789
Li  5.224058  1.905132  3.317669
Li  5.421394  4.097355  1.590612
Li  5.413065  6.429972  9.142847
O  7.618163  8.232406  3.662349
O  7.083261  5.946556  4.345319
O  5.326201  7.636227  4.191659
O  6.962252  7.745855  5.968760
O  3.216296  2.294922  7.071109
O  3.751198  4.580772  6.388140
O  5.508259  2.891101  6.541799
O  3.872208  2.781473  4.764698
O  3.867960  7.089388  0.484002
O  8.812046  7.372512 10.318039
O  8.853120  9.391156  8.994501
O  6.974740  7.847475  8.785884
O  6.966500  3.437940 10.249457
O  2.022413  3.154815  0.415419
O  1.981340  1.136172  1.738957
O  3.859720  2.679853  1.947575
F  4.261160  5.359990  2.643971
F  6.573299  5.167338  8.089488
F  4.591697  7.045734  7.483894
F  6.242762  3.481593  3.249565
S  6.742214  7.362042  4.533542
S  4.092246  3.165286  6.199917
S  7.979816  8.453959  9.742782
S  2.854644  2.073368  0.990677
Fe  6.614451  3.083172  8.266183
Fe  4.220009  7.444156  2.467275
Fe  7.917741  6.395510  7.294339
Fe  2.916718  4.131818  3.439120
%ENDBLOCK POSITIONS_ABS

