#######################################################
#CASTEP cell file: refined_structures-pbe/080-2LiFeSO4F-200804-030554-4e79e5.cell
#Created using the Atomic Simulation Environment (ASE)#
#######################################################

%BLOCK LATTICE_CART
 5.384676 -0.234968 -0.086365
-2.800614  7.194593  0.442702
-0.695939 -2.886206  5.453085
%ENDBLOCK LATTICE_CART

%BLOCK POSITIONS_ABS
Li -1.981928  4.713895  0.863443
Li  3.870052 -0.640476  4.945979
O  0.373446 -0.981700  4.535539
O  0.064119  1.333991  3.954764
O  1.258874 -0.160775  2.441353
O  2.311576  0.520996  4.534259
O  1.514678  5.055119  1.273883
O  1.824004  2.739429  1.854659
O  0.629249  4.234195  3.368070
O -0.423453  3.552423  1.275164
F  3.720082  0.711883  0.136288
F -1.831959  3.361536  5.673134
S  1.029200  0.204647  3.864474
S  0.858923  3.868772  1.944949
Fe  0.101439  3.162573  5.010986
Fe  1.786685  0.910846  0.798437
%ENDBLOCK POSITIONS_ABS

