#######################################################
#CASTEP cell file: refined_structures-pbe/081-2LiFeSO4F-200804-042630-6a0e23.cell
#Created using the Atomic Simulation Environment (ASE)#
#######################################################

%BLOCK LATTICE_CART
 5.397315  0.000000  0.000000
 0.000000  7.583792  0.063366
-2.698655 -1.839289  4.908415
%ENDBLOCK LATTICE_CART

%BLOCK POSITIONS_ABS
Li -1.739597 -0.248481  4.762129
Li  1.739603  3.543415  4.793812
O  1.867490  0.448632  4.564924
O  2.378443  2.856300  0.411910
O  4.307498  4.052682  1.304306
O  3.923127  1.749158  1.992356
O -1.867484  4.240528  4.596606
O  3.018873  6.648196  0.443593
O  1.089818  0.260786  1.272623
O  1.474190  5.541054  2.024039
F  0.756357  2.934589  3.308629
F -0.756353 -0.857307  3.276946
S  3.784227  2.704140  0.884206
S  1.613095  6.496035  0.915889
Fe -0.266790  4.750071  3.102611
Fe  0.266793  0.958175  3.070928
%ENDBLOCK POSITIONS_ABS

