#######################################################
#CASTEP cell file: refined_structures-pbe/082-2LiFeSO4F-200804-034833-02636f.cell
#Created using the Atomic Simulation Environment (ASE)#
#######################################################

%BLOCK LATTICE_CART
 4.932819  0.002989  0.007043
-0.160366  8.351904  0.058059
-0.096044 -1.844247  5.945926
%ENDBLOCK LATTICE_CART

%BLOCK POSITIONS_ABS
Li  1.361699  1.652592  5.160899
Li  3.314710  4.858054  0.850129
O  0.501450  2.015034  0.211075
O  3.239314  1.323747  5.758938
O  3.398297  1.079116  1.116951
O  3.671967 -0.771253  4.639978
O  4.174959  4.495612  5.799952
O  1.437095  5.186899  0.252090
O  1.278112  5.431530  4.894077
O  1.004442  7.281899  1.371050
F  1.120597  1.703545  3.400271
F  3.555812  4.807101  2.610757
S  3.862234 -0.005602  5.907455
S  0.814175  6.516247  0.103573
Fe  3.247606  5.622951  4.276927
Fe  1.428803  0.887694  1.734101
%ENDBLOCK POSITIONS_ABS

