#######################################################
#CASTEP cell file: refined_structures-pbe/083-4LiFeSO4F-200804-063830-4dd149.cell
#Created using the Atomic Simulation Environment (ASE)#
#######################################################

%BLOCK LATTICE_CART
 5.761835 -0.144530  0.032166
-1.200473  7.847179  0.060802
-4.262533 -4.230980  8.720983
%ENDBLOCK LATTICE_CART

%BLOCK POSITIONS_ABS
Li  1.195489  6.045918  0.740240
Li -0.896661 -2.574249  8.073710
Li  2.060405 -2.321595  4.795844
Li -1.761576  5.793264  4.018106
O -0.823574 -0.828092  7.198219
O  0.567762 -1.082901  5.212830
O  1.560744 -0.182447  7.225899
O -0.167152  1.122108  6.019309
O  1.122403  4.299761  1.615731
O -0.268933  4.554570  3.601120
O -1.261915  3.654115  1.588051
O  0.465981  2.349561  2.794641
O -2.039460  4.087264  6.463834
O  1.278895  4.030431  6.251139
O -3.252164  2.167341  5.581883
O  2.682851  4.079399  4.293368
O  2.338289 -0.615595  2.350116
O -0.980066 -0.558762  2.562811
O  3.550993  1.304328  3.232067
O -2.384022 -0.607730  4.520582
F -0.339226  6.846951  0.112275
F  0.638055 -3.375282  8.701675
F -1.774837  1.801545  8.140014
F  2.073666  1.670124  0.673936
S  0.328463 -0.250844  6.411760
S -0.029634  3.722513  2.402190
S -3.194830  3.632654  5.645727
S  3.493659 -0.160986  3.168223
Fe  0.518254  0.543829  1.433114
Fe -0.219425  2.927840  7.380836
Fe  2.613391  2.888076  2.324741
Fe -2.314562  0.583593  6.489209
%ENDBLOCK POSITIONS_ABS

