#######################################################
#CASTEP cell file: refined_structures-pbe/084-2LiFeSO4F-200804-051257-5a2a23.cell
#Created using the Atomic Simulation Environment (ASE)#
#######################################################

%BLOCK LATTICE_CART
 4.952028 -0.096278  0.061210
 3.233645  7.266173  0.169782
-7.716656 -3.832092  7.156327
%ENDBLOCK LATTICE_CART

%BLOCK POSITIONS_ABS
Li  4.864606  2.406058  0.262399
Li -4.395589  0.931745  7.124921
O -1.432761  4.512501  5.049538
O -4.628790 -0.960333  6.567474
O -1.780042 -1.965331  5.814214
O -0.411795 -0.571370  4.372441
O  1.901778 -1.174699  2.337782
O  5.097806  4.298136  0.819846
O  2.249059  5.303133  1.573106
O  0.880812  3.909173  3.014879
F  0.629446  2.176066  6.002535
F -0.160429  1.161736  1.384785
S -0.363269 -1.608201  5.443286
S  0.832286  4.946004  1.944034
Fe -0.007719 -0.402083  2.418740
Fe  0.476736  3.739885  4.968580
%ENDBLOCK POSITIONS_ABS

