#######################################################
#CASTEP cell file: refined_structures-pbe/085-4LiFeSO4F-200804-092304-0146b4.cell
#Created using the Atomic Simulation Environment (ASE)#
#######################################################

%BLOCK LATTICE_CART
 4.892967  0.036476 -0.046320
-2.905254 10.745148 -0.453859
 1.015572  7.777200  7.707596
%ENDBLOCK LATTICE_CART

%BLOCK POSITIONS_ABS
Li  1.442950 10.290012  4.641507
Li  1.560335  8.268811  2.565911
Li  5.061687  8.535371  6.775410
Li -2.058402 10.023452  0.432008
O  2.865117 13.704174  6.355063
O  1.682442 14.760541  4.525263
O  0.859868 15.003335  6.815655
O  0.693753 12.872300  5.591188
O  0.138169  4.854649  0.852355
O  1.320844  3.798283  2.682155
O  2.143417  3.555488  0.391763
O  2.309533  5.686523  1.616229
O  0.750308 10.076178  2.749993
O -1.078598 11.308929  1.663882
O  1.002144 10.893600  0.481219
O  0.903028 12.471665  2.378825
O  2.252978  8.482646  4.457425
O  4.081883  7.249894  5.543535
O  2.001142  7.665223  6.726198
O  2.100257  6.087159  4.828592
F  2.777854  8.386607  1.132491
F  0.225432 10.172216  6.074926
F  0.040491  6.985310  2.743426
F  2.962795 11.573513  4.463991
S  1.522769 14.074542  5.853605
S  1.480516  4.484281  1.353812
S  0.416661 11.174839  1.812626
S  2.586625  7.383985  5.394791
Fe  5.014922  5.827170  4.284195
Fe -2.011636 12.731654  2.923222
Fe  3.984938 11.880018  6.310542
Fe -0.981653  6.678805  0.896875
%ENDBLOCK POSITIONS_ABS

