#######################################################
#CASTEP cell file: refined_structures-pbe/086-2LiFeSO4F-200804-043132-934583.cell
#Created using the Atomic Simulation Environment (ASE)#
#######################################################

%BLOCK LATTICE_CART
 5.002671  0.000000  0.000000
 0.000000  5.558915  0.017940
 0.000000 -1.779968  7.671931
%ENDBLOCK LATTICE_CART

%BLOCK POSITIONS_ABS
Li  3.627232  0.870742  3.819149
Li  1.125897  2.908205  3.870723
O  2.920311  2.577939  4.576076
O  0.062393  3.034113  5.606305
O  2.989234  3.522888  6.825416
O  3.653199 -0.667979  4.920802
O  0.418976  1.201008  3.113796
O  2.563729  0.744834  2.083567
O  0.487899  0.256059  0.864456
O  1.151863  4.446926  2.769070
F  4.499166  3.042812  0.565912
F  1.997830  0.736135  7.123960
S  3.644995  3.527114  5.454115
S  1.143659  0.251833  2.235757
Fe  3.504616  1.416374  0.314634
Fe  1.003280  2.362573  7.375238
%ENDBLOCK POSITIONS_ABS

