#######################################################
#CASTEP cell file: refined_structures-pbe/087-2LiFeSO4F-200804-045027-d12064.cell
#Created using the Atomic Simulation Environment (ASE)#
#######################################################

%BLOCK LATTICE_CART
 5.431982 -0.153302 -0.112873
-1.853981  5.386555  0.204536
-0.771290 -1.274821  6.968673
%ENDBLOCK LATTICE_CART

%BLOCK POSITIONS_ABS
Li -1.392604  4.060274  0.643386
Li  4.199316 -0.101842  6.416951
O  1.437796  2.354482  2.046058
O  1.353686  0.662458  0.338846
O  2.584734  0.277473  2.423338
O  3.469435  1.843595  0.756320
O  1.368916  1.603951  5.014278
O  1.453026  3.295975  6.721490
O  0.221978  3.680960  4.636999
O -0.662723  2.114837  6.304017
F  4.564053 -0.495683  4.551376
F -1.757341  4.454115  2.508960
S  2.234509  1.293905  1.336154
S  0.572203  2.664528  5.724182
Fe  0.991476  0.029592  3.843508
Fe  1.815236  3.928840  3.216828
%ENDBLOCK POSITIONS_ABS

