#######################################################
#CASTEP cell file: refined_structures-pbe/088-2LiFeSO4F-200804-054346-7be000.cell
#Created using the Atomic Simulation Environment (ASE)#
#######################################################

%BLOCK LATTICE_CART
 5.191081  0.000000  0.000000
 0.000000  8.863380  0.195839
 0.000000 -1.692002  5.021481
%ENDBLOCK LATTICE_CART

%BLOCK POSITIONS_ABS
Li  1.612685  7.137650  2.632905
Li  4.208226  0.033729  2.584415
O  3.569577  1.433606  1.436212
O  0.371227  2.505779  0.524819
O  3.688096  3.839247  1.362573
O  3.475833  0.896664  4.299971
O  0.974037  5.737773  3.781107
O  2.966768  4.665600  4.692501
O  1.092556  3.332132  3.854747
O  0.880292  6.274715  0.917349
F  0.875594 -0.060570  2.786568
F  3.471135  7.231948  2.430752
S  4.085295  2.567758  0.677102
S  1.489755  4.603620  4.540218
Fe  1.516098  1.399645  3.920371
Fe  4.111639  5.771734  1.296949
%ENDBLOCK POSITIONS_ABS

