#######################################################
#CASTEP cell file: refined_structures-pbe/089-4LiFeSO4F-200804-061649-05be8b.cell
#Created using the Atomic Simulation Environment (ASE)#
#######################################################

%BLOCK LATTICE_CART
 5.434060  0.073883  0.188104
-1.618816  7.041116  0.362305
-2.148857 -6.625724 11.554474
%ENDBLOCK LATTICE_CART

%BLOCK POSITIONS_ABS
Li  0.292795  1.703487  2.491955
Li  1.373592 -1.214213  9.612929
Li  1.985269  3.660323  5.150528
Li -0.318881 -3.171049  6.954355
O -1.691094  2.939451  5.595819
O -0.574909  0.880436  6.277594
O  0.586969  2.445185  4.823918
O -1.232395  1.213704  3.938075
O  3.357482 -2.450176  6.509064
O  2.241297 -0.391161  5.827289
O  1.079419 -1.955911  7.280966
O  2.898783 -0.724430  8.166808
O -1.801190 -4.112877 10.202152
O -0.180679 -4.493504  8.414530
O  0.407713 -4.991816 10.736034
O  0.131234 -2.666815  9.990103
O  3.467578  4.602152  1.902731
O  1.847067  4.982778  3.690354
O  1.258674  5.481090  1.368850
O  1.535154  3.156090  2.114781
F  1.324788  0.040231  2.727004
F  0.341599  0.449043  9.377880
F -3.290990 -0.353016 10.911827
F -0.476683  0.768407  1.004952
S -0.716038  1.893500  5.198366
S  2.382426 -1.404226  6.906517
S -0.352619 -4.035507  9.874860
S  2.019006  4.524781  2.230024
Fe -1.219502  0.684566  8.190818
Fe  2.885889 -0.195292  3.914066
Fe  2.371014 -5.620630 10.809954
Fe -0.704626  6.109905  1.294930
%ENDBLOCK POSITIONS_ABS

