#######################################################
#CASTEP cell file: refined_structures-pbe/090-2LiFeSO4F-200804-053839-5cad76.cell
#Created using the Atomic Simulation Environment (ASE)#
#######################################################

%BLOCK LATTICE_CART
 5.265887  0.000000 -0.030676
 0.000000  5.184773  0.000000
-2.495524  0.000000  8.503762
%ENDBLOCK LATTICE_CART

%BLOCK POSITIONS_ABS
Li  1.392988  1.603420  3.364783
Li  1.377375  4.195807  5.108303
O  4.131383  2.952378  1.678613
O -0.060330  0.824092  2.181070
O  3.972608  1.100301  0.077381
O  2.762059  0.995381  2.156484
O -1.361021  0.359991  6.794472
O  2.830692  3.416478  6.292016
O -1.202245  3.692687  8.395705
O  0.008304  3.587767  6.316601
F  1.229878  3.457896  3.419997
F  1.540485  0.865510  5.053089
S  3.985929  1.482559  1.524493
S -1.215566  4.074946  6.948593
Fe  2.178179  1.525214  6.784963
Fe  0.592184  4.117600  1.688122
%ENDBLOCK POSITIONS_ABS

