#######################################################
#CASTEP cell file: refined_structures-pbe/091-2LiFeSO4F-200804-032549-0bf52b.cell
#Created using the Atomic Simulation Environment (ASE)#
#######################################################

%BLOCK LATTICE_CART
 4.909161  0.000000  0.066727
 0.000000  5.726082  0.000000
-2.617398  0.000000  8.268425
%ENDBLOCK LATTICE_CART

%BLOCK POSITIONS_ABS
Li  0.240771  2.904998  0.862031
Li  2.050993  0.041956  7.473121
O  4.054303  1.789761  2.205340
O  2.026034  0.517564  2.390629
O  1.921342  2.927655  1.876059
O  2.583980  2.147181  4.091239
O -1.762539  4.652802  6.129812
O  0.265729  3.380606  5.944523
O  0.370421  0.064613  6.459093
O -0.292217  5.010222  4.243913
F  2.453805  1.891953  7.613519
F -0.162042  4.754995  0.721633
S  2.603059  1.877944  2.630055
S -0.311296  4.740985  5.705096
Fe  0.072355  5.663320  2.432076
Fe  2.219408  2.800279  5.903076
%ENDBLOCK POSITIONS_ABS

