#######################################################
#CASTEP cell file: refined_structures-pbe/092-2LiFeSO4F-200804-014253-312279.cell
#Created using the Atomic Simulation Environment (ASE)#
#######################################################

%BLOCK LATTICE_CART
 5.429303 -0.025465 -0.013748
 0.624896  5.582838  0.011782
 1.128550 -2.570518  7.775080
%ENDBLOCK LATTICE_CART

%BLOCK POSITIONS_ABS
Li  1.397826  2.983696  3.849128
Li  5.784923  0.003159  3.923986
O  3.903698  2.474852  6.353586
O  6.023442  1.892282  5.240154
O  4.333894  0.234596  5.486403
O  5.526676  1.028959  7.453271
O  3.279051  0.512003  1.419528
O  1.159306  1.094572  2.532960
O  2.848855  2.752259  2.286711
O  1.656073  1.957896  0.319843
F  5.541547  4.119463  3.056159
F  1.641201 -1.132609  4.716955
S  4.956167  1.446409  6.141654
S  2.226581  1.540446  1.631460
Fe  4.245810  4.100356  1.613624
Fe  2.936938 -1.113502  6.159490
%ENDBLOCK POSITIONS_ABS

