#######################################################
#CASTEP cell file: refined_structures-pbe/093-4LiFeSO4F-200804-074125-b06c98.cell
#Created using the Atomic Simulation Environment (ASE)#
#######################################################

%BLOCK LATTICE_CART
 4.624535 -0.092928  0.000000
-1.613863  7.752358  0.000000
 0.000000  0.000000 10.649748
%ENDBLOCK LATTICE_CART

%BLOCK POSITIONS_ABS
Li  0.189575  6.085146  3.803597
Li  2.821096  1.574283  9.128471
Li  1.497490  0.569702  6.033529
Li  1.513182  7.089727  0.708655
O  0.089234  6.326490  9.719464
O  2.831903  6.154818  8.152827
O  1.474394  0.316341  8.033263
O  4.519688  0.110106  9.892142
O  2.921437  1.332939  4.394590
O  0.178769  1.504611  2.827953
O  1.536278  7.343088  2.708389
O -1.509016  7.549323  4.567268
O  2.120630  3.283279  1.944090
O -0.597096  3.590183  0.461233
O -0.797597  5.069450  2.398993
O  2.315383  5.220054  0.503611
O  0.890041  4.376150  7.268965
O  3.607768  4.069246  5.786107
O  3.808269  2.589979  7.723868
O  0.695288  2.439375  5.828485
F  0.668255  6.698035  5.702235
F  2.342417  0.961394  0.377361
F  1.552813  2.917916  9.554317
F  1.457858  4.741513  4.229443
S -0.875456  7.177188  8.943350
S  3.886127  0.482241  3.618475
S  3.106807  4.275976  1.350045
S -0.096135  3.383453  6.674919
Fe  2.225982  5.574132  6.044860
Fe  0.784690  2.085297  0.719986
Fe  1.416172  4.841403  9.229389
Fe  1.594500  2.818026  3.904515
%ENDBLOCK POSITIONS_ABS

