#######################################################
#CASTEP cell file: refined_structures-pbe/094-2LiFeSO4F-200804-041013-9b245d.cell
#Created using the Atomic Simulation Environment (ASE)#
#######################################################

%BLOCK LATTICE_CART
 4.554162  0.114141  0.000000
-3.628673  5.384528  0.000000
 0.000000  0.000000  7.842531
%ENDBLOCK LATTICE_CART

%BLOCK POSITIONS_ABS
Li  2.407686  0.238531  7.757944
Li -1.683731  2.873724  0.084586
O  0.910841  2.771920  5.764056
O -1.773405  3.486691  4.438729
O -2.274894  4.431745  6.636224
O  0.785399  4.985533  4.747795
O  0.448097  0.022586  2.078475
O  2.318012  0.851498  3.403802
O  1.816523  1.796552  1.206306
O  0.322654  2.236199  3.094736
F -0.776834  4.154146  1.066153
F  3.314584  1.518953  6.776378
S  1.685263  3.973089  5.420334
S  1.222518  1.223754  2.422197
Fe -0.290425  4.370360  2.963093
Fe -0.753170  1.621026  4.879438
%ENDBLOCK POSITIONS_ABS

