#######################################################
#CASTEP cell file: refined_structures-pbe/095-4LiFeSO4F-200804-081359-9e976d.cell
#Created using the Atomic Simulation Environment (ASE)#
#######################################################

%BLOCK LATTICE_CART
 5.564649  0.000000  0.000000
 0.000000 10.478530  0.124745
 0.000000 -3.822139  7.427778
%ENDBLOCK LATTICE_CART

%BLOCK POSITIONS_ABS
Li  2.054953 -0.294763  4.954955
Li  4.837278  6.951155  2.597568
Li  3.437647  0.909973  2.150837
Li  0.655322  5.746418  5.401686
O  3.942150  2.401924  0.930757
O  1.570471  2.779445  0.811722
O  3.087315  0.199948  6.728277
O  3.028270  4.496598  1.695359
O  1.159825  4.254468  6.621767
O  4.352795  3.876947  6.740801
O  0.304990  6.456443  0.824247
O  0.245945  2.159794  5.857164
O  4.785926  7.029371  6.010594
O  2.393007  6.614666  6.244092
O  3.483119  6.309211  4.089462
O  3.173890 -1.918677  4.857795
O  2.003601 -0.372979  1.541929
O  5.175331  0.041726  1.308431
O  0.700794  0.347180  3.463061
O  0.391565  8.575069  2.694729
F  3.219044  7.515748  1.713189
F  0.436719 -0.859356  5.839334
F  0.550345  5.801660  3.575486
F  3.332670  0.854732  3.977037
S  2.889856  3.451036  0.658701
S  0.107531  3.205356  6.893823
S  3.449089  7.162028  5.302039
S  0.666765 -0.505636  2.250484
Fe  1.982476  6.132356  2.349582
Fe  4.764801  0.524036  5.202942
Fe  2.850577  8.823362  0.181121
Fe  0.068252 -2.166970  7.371403
%ENDBLOCK POSITIONS_ABS

