#######################################################
#CASTEP cell file: refined_structures-pbe/096-4LiFeSO4F-200804-102513-a6eb40.cell
#Created using the Atomic Simulation Environment (ASE)#
#######################################################

%BLOCK LATTICE_CART
 6.416740  0.000000  0.000000
 0.000000  7.739771 -0.125246
 0.000000 -2.151835  7.740778
%ENDBLOCK LATTICE_CART

%BLOCK POSITIONS_ABS
Li  2.602049  6.462284  0.408075
Li  2.602049 -0.874348  7.207456
Li  5.800930  5.624739  4.756486
Li  5.800930 -0.036803  2.859045
O  5.826157  3.177342  1.611739
O  5.797931  0.796469  1.143107
O  0.628287  0.148560  7.421925
O  4.586786  0.177564  7.422150
O  5.826157  2.410594  6.003793
O  5.797931  4.791468  6.472425
O  0.628287  5.439376  0.193606
O  4.586786  5.410372  0.193382
O  2.603825  2.879829  2.053700
O  3.834885  1.191716  3.326942
O  2.618847  0.580039  1.308656
O  1.373754  1.180131  3.311094
O  2.603825  2.708107  5.561832
O  3.834885  4.396221  4.288590
O  2.618847  5.007897  6.306876
O  1.373754  4.407806  4.304438
F  5.802488  5.712473  2.805465
F  5.802488 -0.124536  4.810067
F  2.596083  5.611280  2.062284
F  2.596083 -0.023343  5.553247
S  5.815306  2.086857  0.486628
S  5.815306  3.501079  7.128904
S  2.607353  1.425793  2.509610
S  2.607353  4.162144  5.105921
Fe  4.219407  4.367678  2.172121
Fe  4.219407  1.220258  5.443411
Fe  0.982799  1.197388  5.424767
Fe  0.982799  4.390548  2.190764
%ENDBLOCK POSITIONS_ABS

