#######################################################
#CASTEP cell file: refined_structures-pbe/097-2LiFeSO4F-200804-042508-38460d.cell
#Created using the Atomic Simulation Environment (ASE)#
#######################################################

%BLOCK LATTICE_CART
 4.941143  0.000000  0.029553
 0.000000  6.763075  0.000000
-2.529275  0.000000  7.152984
%ENDBLOCK LATTICE_CART

%BLOCK POSITIONS_ABS
Li -0.258648  0.233548  5.301764
Li  2.670516  3.615086  1.880772
O -0.420480  4.069361  2.247484
O -0.349345  6.541898  2.300071
O  1.686267  5.261727  2.475331
O  0.090934  5.254574  4.319262
O  2.832348  0.687824  4.935053
O  2.761213  3.160361  4.882465
O  0.725601  1.880189  4.707206
O  2.320934  1.873036  2.863274
F  2.455818  3.199245  0.144587
F -0.043950  6.580783  7.037949
S  0.217101  5.257998  2.800465
S  2.194767  1.876460  4.382071
Fe  2.648609  0.216241  1.722198
Fe -0.236741  3.597779  5.460339
%ENDBLOCK POSITIONS_ABS

