#######################################################
#CASTEP cell file: refined_structures-pbe/098-2LiFeSO4F-200804-044243-e06e97.cell
#Created using the Atomic Simulation Environment (ASE)#
#######################################################

%BLOCK LATTICE_CART
 4.856916 -0.058766 -0.024502
 0.342686  6.025272 -0.040558
 1.019397  3.903328  7.478307
%ENDBLOCK LATTICE_CART

%BLOCK POSITIONS_ABS
Li  2.991950  4.550569  0.217780
Li  3.227049  5.319265  7.195467
O  1.652077  5.383364  5.868559
O  4.866316  6.077586  4.255825
O  1.593868  7.738725  5.276123
O  4.631457  6.719485  6.580690
O  4.566922  4.486470  1.544688
O  1.352683  3.792249  3.157421
O  4.625131  2.131109  2.137123
O  1.587542  3.150349  0.832556
F  2.113874  6.174275  1.088365
F  4.105125  3.695559  6.324881
S  5.603973  6.487106  5.510208
S  0.615026  3.382729  1.903038
Fe  5.576319  3.616065  5.056293
Fe  0.642680  6.253769  2.356954
%ENDBLOCK POSITIONS_ABS

