#######################################################
#CASTEP cell file: refined_structures-pbe/099-4LiFeSO4F-200804-084609-17fe92.cell
#Created using the Atomic Simulation Environment (ASE)#
#######################################################

%BLOCK LATTICE_CART
 9.292846 -0.016450  0.209876
-2.051430  7.292283  0.021696
-4.923192 -3.750171  6.621984
%ENDBLOCK LATTICE_CART

%BLOCK POSITIONS_ABS
Li -0.089686 -0.795779  5.298283
Li  2.407910  4.321441  1.555273
Li  3.259717  1.537227  1.544640
Li -0.941493  1.988435  5.308917
O -3.139178  3.402071  2.522279
O -1.613223  3.498343  4.437124
O -4.035685  3.370126  4.767613
O -0.957296 -1.898469  3.879570
O  5.457402  0.123591  4.331278
O  3.931447  0.027318  2.416433
O  6.353909  0.155536  2.085944
O  3.275520  5.424130  2.973987
O -2.140769  5.709781  1.109623
O  3.156069  1.955702  5.700029
O  0.787772  2.334035  6.019102
O  1.731207  0.103726  6.399485
O  4.458993 -2.184119  5.743934
O -0.837845  1.569959  1.153527
O  1.530452  1.191627  0.834455
O  0.587017  3.421936  0.454072
F -0.512219  0.605726  4.113268
F  2.830443  2.919936  2.740289
F -2.357229  1.435387  6.516081
F  4.675452  2.090274  0.337476
S -2.898013  3.905747  3.883978
S  5.216237 -0.380086  2.969579
S  1.922740  1.576133  6.531625
S  0.395484  1.949529  0.321932
Fe -0.923033 -0.261734  2.390426
Fe  3.241257  3.787396  4.463131
Fe -4.160375  1.381192  5.699101
Fe  6.478599  2.144470  1.154456
%ENDBLOCK POSITIONS_ABS

