#######################################################
#CASTEP cell file: refined_structures-pbe/100-4LiFeSO4F-200804-075449-5755bd.cell
#Created using the Atomic Simulation Environment (ASE)#
#######################################################

%BLOCK LATTICE_CART
 6.577785  0.000000 -0.000000
-3.288885  6.906645 -0.022993
-0.000000 -2.617284  9.929925
%ENDBLOCK LATTICE_CART

%BLOCK POSITIONS_ABS
Li  1.570297  5.357099  4.892603
Li  1.718603  4.048457  9.857566
Li  0.128880  4.967881  7.210795
Li  3.160021  6.276522  2.245833
O  3.142534 -0.798492  3.868018
O  0.122701  4.479139  2.052319
O  4.387570 -0.217088  1.880508
O -1.315897  6.418794  1.723446
O  0.146352 -2.107134  8.832980
O  3.166202  3.170498  7.017282
O  5.479102 -1.525730  6.845471
O -1.972987  5.110152  6.688409
O -1.040673  2.288981  4.235141
O  0.439215  3.791665  5.479592
O  1.204299  1.568176  4.887237
O -0.525523  1.851346  6.569347
O  4.329567  0.980340  9.200104
O  2.849682  5.100307  0.514629
O  2.084600  0.259534  9.852199
O  3.814417  3.159988  1.604384
F  3.394416 -2.366702  9.049596
F  6.472255 -1.058061  4.084633
F  3.249675 -0.101957  6.471761
F  0.039214  1.206684  1.506798
S -0.052750  5.923745  2.360879
S  3.341651  4.615104  7.325841
S  0.023771  2.394261  5.285005
S  3.265123  3.702903  0.320042
Fe -0.917177  2.751656  2.259309
Fe  4.206070  1.443015  7.224271
Fe  1.752780  0.906334  0.209110
Fe  1.536108 -0.402308  5.174072
%ENDBLOCK POSITIONS_ABS

