#######################################################
#CASTEP cell file: refined_structures-pbe/101-4LiFeSO4F-200804-105707-ca0549.cell
#Created using the Atomic Simulation Environment (ASE)#
#######################################################

%BLOCK LATTICE_CART
 5.081724  0.015174  0.000000
 0.003956  6.114754  0.000000
 0.000000  0.000000 13.671336
%ENDBLOCK LATTICE_CART

%BLOCK POSITIONS_ABS
Li  2.196000  5.245029  8.964153
Li  2.889681  0.884899  2.128485
Li  0.564824  0.562118 10.790289
Li  4.520856  5.567810  3.954621
O  1.712510  2.485389  2.315536
O  0.154616  3.573630  3.837520
O  4.787070  1.301847  3.063338
O  4.594462  3.159807  1.526433
O  3.373171  3.644539  9.151204
O  4.931064  2.556297 10.673188
O  0.298610  4.828081  9.899006
O  0.491218  2.970121  8.362100
O  4.942366  1.366077  5.849008
O  1.263629  0.073413  7.388742
O  4.678289  5.127585  5.984240
O  3.964208  0.404693  7.867553
O  0.143314  4.763851 12.684676
O  3.822052  6.056515  0.553074
O  0.407391  1.002343 12.819908
O  1.121472  5.725235  1.031885
F  2.748685  3.314539 13.280221
F  2.336996  2.815389  6.444553
F  2.166997  0.784316  9.892551
F  2.918683  5.345612  3.056883
S  0.266208  2.595395  2.708166
S  4.819473  3.534533  9.543834
S  4.984452  0.243090  6.816457
S  0.101228  5.886838 13.652125
Fe  2.398652  1.879511  8.234402
Fe  2.687028  4.250417  1.398735
Fe  4.630705  2.845636 12.823826
Fe  0.454975  3.284292  5.988158
%ENDBLOCK POSITIONS_ABS

