#######################################################
#CASTEP cell file: refined_structures-pbe/102-2LiFeSO4F-200804-043134-a39b7d.cell
#Created using the Atomic Simulation Environment (ASE)#
#######################################################

%BLOCK LATTICE_CART
 4.900403 -0.079314 -0.094172
 2.100627  4.428047 -0.094172
 4.271300  2.653145  9.978503
%ENDBLOCK LATTICE_CART

%BLOCK POSITIONS_ABS
Li  3.475019  2.993760  5.865145
Li  7.048580  5.213501  3.925013
O  6.545169  3.460458  3.302244
O  1.573651  1.194856  2.777218
O  3.439913  2.057693  4.101465
O  3.218390  2.626504  1.734707
O  5.269607  2.668135  6.487914
O  9.503817  6.120730  7.012940
O  7.903263  4.830131  5.688693
O  7.491532  5.280793  8.055451
F  5.370894  3.675604  9.634502
F  5.597150  3.816145  0.155656
S  2.477151  2.394815  3.018615
S  8.027724  5.842589  6.771544
Fe  5.566250  5.407840  8.740330
Fe  3.957735  4.408701  1.049828
%ENDBLOCK POSITIONS_ABS

