#######################################################
#CASTEP cell file: refined_structures-pbe/103-4LiFeSO4F-200804-102511-fd7faa.cell
#Created using the Atomic Simulation Environment (ASE)#
#######################################################

%BLOCK LATTICE_CART
 4.812652  0.076566  0.000000
-1.941813  9.388471  0.000000
 0.000000  0.000000  8.306623
%ENDBLOCK LATTICE_CART

%BLOCK POSITIONS_ABS
Li  1.994857  6.685013  5.126165
Li  0.559438  1.952495  3.180458
Li  1.005663  5.268010  7.343301
Li  4.382896  0.612057  0.963321
O  3.533959  4.630203  1.493103
O  3.731935  2.246462  1.923054
O  2.196462  3.068529  0.193029
O  1.683023  3.407723  2.538970
O  0.156726  9.286156  6.813519
O  0.354702  6.902415  6.383569
O -1.180771  7.724481  8.113594
O  3.118442  8.140241  5.767652
O  1.318158  8.549048  1.613504
O -0.532700  7.329329  2.661679
O  1.209941  0.322304  2.222156
O  0.801293  8.896810  3.956941
O -0.117261  3.816529  6.693119
O  2.844533  2.673376  5.644943
O  2.645360  5.054823  6.084466
O -0.634127  4.164291  4.349682
F  0.426052  1.409945  4.921346
F  1.861472  6.142464  3.385277
F  1.138501  5.816169  0.774962
F  4.515734  1.160217  7.531661
S  2.783148  3.308250  1.522195
S -0.594084  7.964203  6.784427
S  0.216951  8.651230  2.628277
S  3.594183  3.995277  5.678345
Fe  1.232732  2.135933  6.824357
Fe  2.668151  6.868451  1.482266
Fe  3.710436  0.433238  5.630884
Fe  0.333204  5.089191  2.675738
%ENDBLOCK POSITIONS_ABS

