#######################################################
#CASTEP cell file: refined_structures-pbe/104-2LiFeSO4F-200804-031245-f22c4d.cell
#Created using the Atomic Simulation Environment (ASE)#
#######################################################

%BLOCK LATTICE_CART
 5.957283 -0.040009 -0.036002
 3.826137  6.258735 -0.069000
 2.015818  0.508937  6.056554
%ENDBLOCK LATTICE_CART

%BLOCK POSITIONS_ABS
Li  8.837120  4.038270  5.385157
Li  2.962117  2.689393  0.566395
O  5.437615  4.880175 -0.032985
O  4.451798  3.447913  1.697575
O  9.775646  5.723833  1.540035
O  6.105169  5.165248  2.258054
O  6.361621  1.847488  5.984537
O  7.347439  3.279750  4.253978
O  2.023591  1.003829  4.411517
O  5.694068  1.562415  3.693499
F  7.125805  2.358938  0.756978
F  4.673432  4.368725  5.194574
S  4.945242  4.828064  1.388654
S  6.853995  1.899599  4.562899
Fe  6.234507  5.217747  4.283432
Fe  5.564730  1.509915  1.668120
%ENDBLOCK POSITIONS_ABS

