#######################################################
#CASTEP cell file: refined_structures-pbe/105-4LiFeSO4F-200804-100617-cd2a78.cell
#Created using the Atomic Simulation Environment (ASE)#
#######################################################

%BLOCK LATTICE_CART
 5.149598 -0.048876  0.000000
-0.089160  5.851814  0.000000
 0.000000  0.000000 14.068403
%ENDBLOCK LATTICE_CART

%BLOCK POSITIONS_ABS
Li  1.499341  5.360827  4.385393
Li  1.543921  2.434920  9.683010
Li  4.100459  5.117361  0.278371
Li  4.145039  2.191454 13.790032
O  2.941567  0.939022 12.612504
O  0.918408  1.611349 13.818937
O  0.797308  0.151192 11.839188
O  1.321772  2.505190 11.601717
O  2.896987  3.864929  1.455899
O  0.873828  4.537256  0.249466
O  0.752727  3.077099  2.229215
O  1.277192  5.431098  2.466686
O  3.560345  5.144530  7.843120
O  1.118686  5.257476  7.993437
O  2.603409  0.872098  9.333941
O  2.395925  4.312281  9.820964
O  3.604925  2.218622  6.225283
O  1.163266  2.331569  6.074966
O  2.558828  3.798006  4.734462
O  2.440505  1.386374  4.247439
F  0.027956  5.295485  5.595241
F  0.072536  2.369578  8.473162
F  3.646257  3.859296 12.919738
F  3.690837  0.933388  1.148665
S  1.510165  1.301963 12.492562
S  1.465584  4.227870  1.575841
S  2.399799  5.382495  8.787748
S  2.444379  2.456588  5.280655
Fe  5.024023  0.809717  7.070766
Fe  4.979443  3.735624  6.997637
Fe  2.040524  1.513935  1.993291
Fe  1.995944  4.439842 12.075112
%ENDBLOCK POSITIONS_ABS

