#######################################################
#CASTEP cell file: refined_structures-pbe/106-4LiFeSO4F-200804-070107-ef1b49.cell
#Created using the Atomic Simulation Environment (ASE)#
#######################################################

%BLOCK LATTICE_CART
 5.495943 -0.052978  0.028441
 0.090399  5.495455  0.028441
-3.877290 -3.777438 13.741944
%ENDBLOCK LATTICE_CART

%BLOCK POSITIONS_ABS
Li  2.389098 -1.210632  5.086203
Li -3.086546  0.531145 11.957175
Li  1.489389  1.557144  3.905912
Li -0.343181 -0.440454 10.776884
O -1.420673 -0.330371 12.432937
O  3.977022  2.221498  0.165904
O  1.565588  1.736120  0.123575
O  2.412880  3.787643  1.116247
O  1.571329  0.477147  5.561965
O  0.385836  2.029003  7.036876
O -0.162278 -0.368949  6.994547
O  1.910648  0.424541  7.987219
O -2.653311  2.178228 10.991028
O -1.266773 -1.952439  9.575956
O -1.077242  1.037211  9.572072
O -0.246711  2.295444 11.442420
O  4.046922 -0.820508  4.120056
O -0.046173  0.673305  2.704984
O  2.947404  0.784789  2.701100
O  4.226872  1.582216  4.571448
F  1.169877  3.265341  4.425167
F  1.356101 -0.804415 11.296139
F  3.317079  3.588971  6.638628
F  1.735629  1.333615 13.509600
S -1.235341 -0.971764 13.759334
S  0.934988  0.679146  6.888362
S -1.286151  2.270198 10.398899
S  4.174522  0.543788  3.527927
Fe -0.447160  3.356388  5.585651
Fe  1.404937 -2.423277 12.456623
Fe -1.866607 -0.506001  8.168414
Fe  1.384127  0.035946  1.297442
%ENDBLOCK POSITIONS_ABS

