#######################################################
#CASTEP cell file: refined_structures-pbe/107-2LiFeSO4F-200804-035657-916aed.cell
#Created using the Atomic Simulation Environment (ASE)#
#######################################################

%BLOCK LATTICE_CART
 5.116161  0.000000 -0.008969
 0.000000  6.088280  0.000000
-3.398673  0.000000  6.970780
%ENDBLOCK LATTICE_CART

%BLOCK POSITIONS_ABS
Li  1.919605  2.537145  5.151323
Li -0.202117  5.581285  1.810488
O  3.773024  1.098917  2.004313
O  2.427438  1.040176  4.020222
O  1.664193  5.993629  1.995358
O  1.706780  2.360746  2.114620
O -2.055536  4.143057  4.957498
O -0.709951  4.084316  2.941589
O  0.053295  2.949489  4.966453
O  0.010708  5.404886  4.847191
F -0.153869  4.399519  0.320756
F  1.871357  1.355379  6.641055
S  2.343493  1.083262  2.525361
S -0.626005  4.127402  4.436450
Fe  1.946322  5.716254  5.593523
Fe -0.228834  2.672115  1.368287
%ENDBLOCK POSITIONS_ABS

