#######################################################
#CASTEP cell file: refined_structures-pbe/108-4LiFeSO4F-200804-084331-4021b6.cell
#Created using the Atomic Simulation Environment (ASE)#
#######################################################

%BLOCK LATTICE_CART
 5.158202  0.000000  0.000000
 0.000000 10.056873  0.021565
 0.000000  4.859577  9.515568
%ENDBLOCK LATTICE_CART

%BLOCK POSITIONS_ABS
Li  2.150203  3.853994  4.729350
Li  4.729304  6.034019  4.797001
Li  3.007999 11.062456  4.807783
Li  0.428898  8.882431  4.740132
O  0.415586  8.765393  8.070560
O  0.902348  6.394360  8.231229
O  0.405115  7.373619  6.062410
O  3.803046  7.160735  7.744577
O  2.994686  1.122621  1.455790
O  3.481449  3.493653  1.295121
O  2.984216  2.514394  3.463940
O  1.223945  2.727279  1.781773
O  4.742616  6.151057  1.466573
O  4.255854  8.522090  1.305904
O  4.753087  7.542831  3.474723
O  1.355156  7.755715  1.792556
O  2.163515 13.793829  8.081342
O  1.676753 11.422797  8.242011
O  2.173986 12.402056  6.073192
O  3.934257 12.189171  7.755360
F  4.536650 10.223989  5.599604
F  1.957549  9.720897  3.948311
F  0.621552  4.692461  3.937528
F  3.200653  5.195553  5.588822
S  0.094023  7.418955  7.519266
S  2.673124  2.469058  2.007085
S  5.064178  7.497495  2.017867
S  2.485077 12.447392  7.530048
Fe  0.026029  4.287526  2.058155
Fe  2.605130  5.600487  7.468195
Fe -0.026029 10.628924  7.478978
Fe  2.553072  9.315963  2.068938
%ENDBLOCK POSITIONS_ABS

