#######################################################
#CASTEP cell file: refined_structures-pbe/109-2LiFeSO4F-200804-044245-813162.cell
#Created using the Atomic Simulation Environment (ASE)#
#######################################################

%BLOCK LATTICE_CART
 6.192601  0.022226 -0.044647
 0.648077  4.983402 -0.015107
 3.013835  0.246638  6.823996
%ENDBLOCK LATTICE_CART

%BLOCK POSITIONS_ABS
Li  6.600820  2.877081  5.126381
Li  3.253693  2.375185  1.637861
O  8.434893  3.812058  5.398015
O  3.446418  1.689010  5.275107
O  4.694717  3.779005  5.308773
O  3.350840  3.190069  3.365925
O  1.419619  1.440208  1.366227
O  6.408094  3.563256  1.489135
O  5.159796  1.473261  1.455469
O  6.503673  2.062197  3.398317
F  6.435348  1.406818  6.278132
F  3.419164  3.845448  0.486110
S  3.433579  3.117330  4.811721
S  6.420934  2.134936  1.952521
Fe  5.312777  4.780603  0.322832
Fe  4.541736  0.471663  6.441410
%ENDBLOCK POSITIONS_ABS

