#######################################################
#CASTEP cell file: refined_structures-pbe/110-4LiFeSO4F-200804-062136-fa3e05.cell
#Created using the Atomic Simulation Environment (ASE)#
#######################################################

%BLOCK LATTICE_CART
 5.257297 -0.078614 -0.028428
 2.896589  8.644135 -0.022145
 0.687452 -0.229772  9.734949
%ENDBLOCK LATTICE_CART

%BLOCK POSITIONS_ABS
Li  5.448453  4.212676  0.123151
Li  3.392885  4.123074  9.561225
Li  3.470820  1.497782  6.651505
Li  5.370518  6.837968  3.032871
O  3.406221  1.231089  0.711762
O  6.299640  1.110642  9.476678
O  4.687826  2.821921  8.916423
O  4.399267  0.552099  8.068893
O  5.435117  7.104661  8.972613
O  2.541698  7.225108  0.207698
O  4.153512  5.513829  0.767953
O  4.442072  7.783651  1.615483
O  4.489245  6.568175  4.649822
O  3.148000  6.933775  6.623818
O  4.859925  5.212579  6.647012
O  2.828424  4.913520  5.311708
O  4.352093  1.767575  5.034554
O  5.693338  1.401975  3.060558
O  3.981413  3.123171  3.037364
O  6.012914  3.422230  4.372668
F  1.990676  2.413614  6.933550
F  6.850662  5.922136  2.750826
F  7.196920  4.762656  8.448972
F  1.644418  3.573093  1.235404
S  4.871673  1.372181  9.233196
S  3.969665  6.963569  0.451180
S  3.858682  5.926318  5.791117
S  4.982656  2.409432  3.893258
Fe  1.553536  1.341816  1.433558
Fe  7.287802  6.993934  8.250818
Fe  6.490357  4.015177  6.449910
Fe  2.350981  4.320573  3.234466
%ENDBLOCK POSITIONS_ABS

