#######################################################
#CASTEP cell file: refined_structures-pbe/111-4LiFeSO4F-200804-102428-4e2563.cell
#Created using the Atomic Simulation Environment (ASE)#
#######################################################

%BLOCK LATTICE_CART
 7.272710 -0.240807 -0.200833
 6.026245  7.568135 -0.116053
 2.837633  2.642089  8.071527
%ENDBLOCK LATTICE_CART

%BLOCK POSITIONS_ABS
Li 12.653179  9.274172  6.873803
Li  3.483409  0.695245  0.880837
Li  5.380768  6.059491  5.683778
Li 10.755820  3.909926  2.070863
O  6.723764  2.479653  3.558731
O  5.971805  4.465571  4.706035
O  5.386212  2.244009  5.596916
O  4.316829  2.989022  3.612714
O  9.412824  7.489764  4.195910
O 10.164783  5.503847  3.048606
O 10.750376  7.725408  2.157724
O 11.819759  6.980395  4.141927
O  8.851629  8.257816  7.077339
O  4.831335  4.593657  0.801615
O  7.933992  6.001898  6.757972
O 13.696337  7.601399  6.612166
O  7.284959  1.711601  0.677301
O 11.305253  5.375760  6.953025
O  8.202596  3.967519  0.996669
O  2.440252  2.368018  1.142474
F  7.491655  3.245167  7.513937
F  8.644933  6.724250  0.240704
F  9.672080  2.995354  5.628797
F  6.464508  6.974063  2.125843
S  5.614172  3.098051  4.359455
S 10.522416  6.871366  3.395185
S  7.674247  7.323039  7.389507
S  8.462341  2.646378  0.365134
Fe  6.703968  0.758086  2.542047
Fe  9.432620  9.211332  5.212594
Fe  9.040287  4.326934  6.906441
Fe  7.096301  5.642483  0.848200
%ENDBLOCK POSITIONS_ABS

