#######################################################
#CASTEP cell file: refined_structures-pbe/112-4LiFeSO4F-200804-075351-525af2.cell
#Created using the Atomic Simulation Environment (ASE)#
#######################################################

%BLOCK LATTICE_CART
 5.412359 -0.177054 -0.262483
 1.236205  8.577889 -0.004984
 2.097828  3.029692  8.912882
%ENDBLOCK LATTICE_CART

%BLOCK POSITIONS_ABS
Li  3.051309  8.752015  2.610232
Li  5.695081  2.678513  6.035184
Li  5.371540  5.616964  1.356078
Li  3.374851  5.813564  7.289338
O  1.727078  5.515200  0.792443
O  4.260212 10.050786  7.791231
O  3.964912  5.761768 -0.057495
O  2.902299  7.636054  1.094267
O  7.019313  5.915328  7.852973
O  4.486179  1.379741  0.854185
O  4.781479  5.668760  8.702911
O  5.844092  3.794474  7.551149
O  4.445479  8.581478  4.155041
O  6.190502  7.041792  5.025311
O  6.766638  8.778974  3.435273
O  5.401610  6.879880  2.734420
O  4.300912  2.849050  4.490375
O  2.555889  4.388736  3.620105
O  1.979753  2.651554  5.210143
O  3.344781  4.550648  5.910996
F  4.664250  3.953288  1.871109
F  4.082141  7.477240  6.774307
F  7.076634  9.323391  6.337607
F  1.669757  2.107137  2.307809
S  2.682606  6.534138  0.178858
S  6.063784  4.896390  8.466558
S  5.704925  7.769744  3.837634
S  3.041466  3.660784  4.807782
Fe  2.584696  3.767866  1.600465
Fe  6.161695  7.662662  7.044951
Fe  5.112003  2.120824  2.706347
Fe  3.634387  9.309704  5.939069
%ENDBLOCK POSITIONS_ABS

