#######################################################
#CASTEP cell file: refined_structures-pbe/113-2LiFeSO4F-200804-052959-ab4f30.cell
#Created using the Atomic Simulation Environment (ASE)#
#######################################################

%BLOCK LATTICE_CART
 5.271711 -0.054422 -0.116299
 2.854908  8.054646  0.032555
 0.618313 -0.868096  5.843308
%ENDBLOCK LATTICE_CART

%BLOCK POSITIONS_ABS
Li  7.900527  7.421935  1.268467
Li  0.844405 -0.289808  4.491098
O  4.523324  4.724438  0.923906
O  6.322702  6.284853  1.377735
O  5.571038  4.737449  3.104205
O  4.130294  6.605552  2.437712
O  4.221608  2.407690  4.835659
O  2.422230  0.847275  4.381830
O  3.173894  2.394679  2.655360
O  4.614638  0.526576  3.321853
F  4.970711  1.080974  0.393891
F  3.774222  6.051154  5.365674
S  5.164002  5.663582  1.990567
S  3.580930  1.468546  3.768998
Fe  4.142739  2.701271  0.940450
Fe  4.602193  4.430856  4.819114
%ENDBLOCK POSITIONS_ABS

