#######################################################
#CASTEP cell file: refined_structures-pbe/114-4LiFeSO4F-200804-100017-f30b20.cell
#Created using the Atomic Simulation Environment (ASE)#
#######################################################

%BLOCK LATTICE_CART
 5.764265 -0.023964 -0.045056
 1.402544 10.317361 -0.137814
 3.454951  3.912595  7.554022
%ENDBLOCK LATTICE_CART

%BLOCK POSITIONS_ABS
Li  5.533544  5.064373  5.977773
Li  5.088215  9.141619  1.393380
Li  2.940597  8.537345 -0.181285
Li  4.226211  1.756052 -0.001584
O  6.702493  2.407177  1.975126
O  2.342650  2.275528  0.024563
O  1.717255  4.445648  0.891039
O  9.265587  6.899864  7.333214
O  3.919266 11.798816  5.396026
O  4.824158  8.017869 -0.207433
O  8.904505  9.760344  6.480114
O  1.356173  7.306128  0.037939
O  5.313515  5.316876  2.554090
O  3.158073  6.456459  2.557036
O  4.347845  6.092179  4.658319
O  3.382963  4.197699  3.464893
O  5.308245  8.889116  4.817062
O  7.463687  7.749533  4.814117
O  6.273915  8.113813  2.712834
O  7.238797 10.008293  3.906260
F  4.593315  3.484397  6.285048
F  6.028445 10.721595  1.086105
F  7.350959  4.740531  5.885194
F  3.270801  9.465461  1.485959
S  1.282504  3.061019  0.704301
S  9.339255 11.144974  6.666852
S  4.045938  5.522390  3.294112
S  6.575822  8.683602  4.077041
Fe  7.755466 10.768379  2.096641
Fe  2.866294  3.437613  5.274512
Fe  3.643296  7.983725  5.519614
Fe  6.978463  6.222267  1.851539
%ENDBLOCK POSITIONS_ABS

