#######################################################
#CASTEP cell file: refined_structures-pbe/115-4LiFeSO4F-200804-061926-c0ad9c.cell
#Created using the Atomic Simulation Environment (ASE)#
#######################################################

%BLOCK LATTICE_CART
 5.127899  0.000000  0.000000
 0.000000  5.809063  0.000000
 0.000000  0.000000 18.593166
%ENDBLOCK LATTICE_CART

%BLOCK POSITIONS_ABS
Li  2.829042  1.952364 11.487481
Li  2.298856  1.952364  7.105685
Li  2.829042  4.856896 16.402268
Li  2.298856  4.856896  2.190898
O  2.849222  4.857646  5.628819
O  0.414872  4.878518  5.382136
O  1.473590  0.266891  7.213620
O  1.449003  3.624850  7.185562
O  2.278677  4.857646 12.964347
O  4.713027  4.878518 13.211030
O  3.654308  0.266891 11.379546
O  3.678896  3.624850 11.407604
O  2.849222  1.953115  3.667764
O  0.414872  1.973986  3.914447
O  1.473590  3.171423  2.082963
O  1.449003  0.720319  2.111021
O  2.278677  1.953115 14.925402
O  4.713027  1.973986 14.678719
O  3.654308  3.171423 16.510203
O  3.678896  0.720319 16.482145
F  3.878283  1.960981  6.117111
F  1.249615  1.960981 12.476055
F  3.878283  4.865512  3.179472
F  1.249615  4.865512 15.413694
S  1.542324  4.858613  6.407769
S  3.585574  4.858613 12.185397
S  1.542324  1.954081  2.888814
S  3.585574  1.954081 15.704352
Fe  4.129165  0.511197  4.645837
Fe  0.998734  0.511197 13.947329
Fe  4.129165  3.415729  4.650746
Fe  0.998734  3.415729 13.942420
%ENDBLOCK POSITIONS_ABS

