#######################################################
#CASTEP cell file: refined_structures-pbe/116-2LiFeSO4F-200804-023841-2bc75d.cell
#Created using the Atomic Simulation Environment (ASE)#
#######################################################

%BLOCK LATTICE_CART
 5.578113  0.000000  0.000000
 0.000000  5.331372  0.056328
 0.000000  2.338559  8.086231
%ENDBLOCK LATTICE_CART

%BLOCK POSITIONS_ABS
Li  5.571664  3.673882  0.096827
Li  2.782608  3.996049  8.045732
O  0.127604  6.874983  6.198915
O  2.275100  5.986003  5.548951
O  2.133893  2.710368  6.819665
O  1.498475  2.732529  4.486411
O  2.916660  0.794948  1.943644
O  5.064157  1.683927  2.593608
O  4.922950  4.959562  1.322894
O  4.287531  4.937401  3.656148
F  1.525612  2.833804  0.764499
F  4.314669  4.836126  7.378060
S  1.532524  1.927636  5.752987
S  4.321580  5.742295  2.389572
Fe  1.461547  2.132658  2.592225
Fe  4.250603  5.537272  5.550334
%ENDBLOCK POSITIONS_ABS

