#######################################################
#CASTEP cell file: refined_structures-pbe/117-4LiFeSO4F-200804-073505-ae8698.cell
#Created using the Atomic Simulation Environment (ASE)#
#######################################################

%BLOCK LATTICE_CART
 6.990849  0.094088  0.000000
-4.402083  9.222866  0.000000
 0.000000  0.000000  6.841843
%ENDBLOCK LATTICE_CART

%BLOCK POSITIONS_ABS
Li  6.031459  0.932699  3.739202
Li  0.334993  5.497088  3.102640
Li  1.021910  7.324383  5.526538
Li -0.272473  2.665906  1.315304
O  5.083614  1.324921  0.792479
O  3.150692  0.281170  1.875450
O  1.032703  8.822404  2.470521
O  0.051234  8.225544  0.318075
O -0.612852  5.889310  6.049363
O  4.445075  4.939647  4.966393
O -0.261680  4.163927  4.371322
O -1.243149  3.567066  6.523767
O  0.938814  4.325608  1.645792
O  2.640637  3.472608  0.194304
O  2.941316  3.292711  2.624199
O  3.107295  5.449762  1.578376
O  2.233197  8.984085  5.196051
O -3.055829  8.036997  6.647538
O -2.755150  7.857100  4.217643
O  1.812912  0.791284  5.263466
F  4.354981  1.614933  4.427388
F -1.341485  6.179322  2.414454
F  0.419765  1.635633  2.738127
F  1.714148  6.294110  4.103716
S  4.554975  0.048824  1.401214
S -1.141491  4.613213  5.440628
S  2.395837  4.127886  1.510696
S -3.300629  8.692275  5.331146
Fe  4.091951  2.419736  6.184035
Fe -1.604515  6.984125  0.657808
Fe  2.361081  1.471729  3.371956
Fe  3.655464  6.130207  3.469887
%ENDBLOCK POSITIONS_ABS

