#######################################################
#CASTEP cell file: refined_structures-pbe/118-4LiFeSO4F-200804-061210-eb81d8.cell
#Created using the Atomic Simulation Environment (ASE)#
#######################################################

%BLOCK LATTICE_CART
 7.454141  0.000000  0.000000
 0.000000  6.266492  0.000000
 0.000000  0.000000 10.909109
%ENDBLOCK LATTICE_CART

%BLOCK POSITIONS_ABS
Li  6.828528  3.958548  0.803632
Li  0.625613  2.307944  6.258186
Li  0.625613  0.825302  0.803632
Li  6.828528  5.441189  6.258186
O  1.567757  6.203549  8.394892
O  1.688943  1.495724 10.267857
O  1.782368  2.282575  7.963408
O  3.662020  1.068141  8.941064
O  5.886384  0.062943  2.940337
O  5.765198  4.770768  4.813303
O  5.671773  3.983917  2.508853
O  3.792120  5.198351  3.486510
O  5.886384  3.070303  8.394892
O  5.765198  4.628970 10.267857
O  5.671773  5.415821  7.963408
O  3.792120  4.201387  8.941064
O  1.567757  3.196189  2.940337
O  1.688943  1.637522  4.813303
O  1.782368  0.850671  2.508853
O  3.662020  2.065105  3.486510
F  0.795398  4.232810  6.471238
F  6.658743  2.033682  1.016683
F  6.658743  1.099564  6.471238
F  0.795398  5.166928  1.016683
S  2.177580  1.191901  8.931109
S  5.276560  5.074591  3.476554
S  5.276560  4.325147  8.931109
S  2.177580  1.941345  3.476554
Fe  2.064375  4.313139  7.974518
Fe  5.389766  1.953353  2.519964
Fe  5.389766  1.179893  7.974518
Fe  2.064375  5.086598  2.519964
%ENDBLOCK POSITIONS_ABS

