#######################################################
#CASTEP cell file: refined_structures-pbe/119-4LiFeSO4F-200804-071908-bda5b3.cell
#Created using the Atomic Simulation Environment (ASE)#
#######################################################

%BLOCK LATTICE_CART
 9.440734 -0.000000  0.000000
-4.720365  7.375394  0.000000
 0.000000  0.000000  6.049325
%ENDBLOCK LATTICE_CART

%BLOCK POSITIONS_ABS
Li  1.192047  1.512942  4.521421
Li -3.528319  5.862452  1.527904
Li  1.192048  5.862452  1.496758
Li  5.912414  1.512942  4.552567
O  5.060654  2.240504  2.759848
O  5.086864  2.267694  0.294232
O  5.972728  0.359144  1.515126
O  7.145484  2.482741  1.552264
O  0.340288  5.134890  3.289477
O  0.366498  5.107700  5.755093
O  1.252363  7.016250  4.534199
O  2.425118  4.892652  4.497061
O  5.060655  5.134890  5.784511
O  5.086865  5.107700  3.318894
O -3.468004  7.016250  4.539788
O -2.295249  4.892652  4.576926
O  0.340287  2.240504  0.264814
O  0.366497  2.267694  2.730430
O  1.252361  0.359144  1.509537
O  2.425117  2.482741  1.472399
F -1.771429  5.013926  1.516940
F  2.948937  2.361468  4.532385
F  7.669304  2.361468  4.541603
F  2.948938  5.013926  1.507722
S  5.803156  1.796796  1.527610
S  1.082790  5.578597  4.521715
S  5.803157  5.578597  4.552272
S  1.082789  1.796796  1.497053
Fe  3.492530  3.695846  6.003538
Fe -1.227837  3.679547  0.045786
Fe  3.492530  3.679547  2.978876
Fe -1.227837  3.695846  3.070449
%ENDBLOCK POSITIONS_ABS

