#######################################################
#CASTEP cell file: refined_structures-pbe/120-2LiFeSO4F-200804-022713-dcb000.cell
#Created using the Atomic Simulation Environment (ASE)#
#######################################################

%BLOCK LATTICE_CART
 5.714602 -0.042265  0.094757
-0.125107  5.771154 -0.016142
-4.228069  1.589989  7.891052
%ENDBLOCK LATTICE_CART

%BLOCK POSITIONS_ABS
Li  0.834421  5.849520  1.034472
Li  0.527005  1.469358  6.935195
O -2.290105  1.632582  4.944334
O -2.662135  3.964588  5.463804
O -0.988996  2.696027  6.724507
O -3.370880  2.262334  7.035339
O  3.651531  5.686296  3.025333
O  4.023560  3.354290  2.505863
O  2.350422  4.622851  1.245160
O  4.732306  5.056544  0.934328
F  0.187136  5.976384  5.615050
F  1.174290  1.342494  2.354616
S -2.306219  2.654654  6.097731
S  3.667645  4.664224  1.871935
Fe  2.852890  1.833541  3.040976
Fe -1.491464  5.485337  4.928691
%ENDBLOCK POSITIONS_ABS

