#######################################################
#CASTEP cell file: refined_structures-pbe/121-2LiFeSO4F-200804-020732-34acef.cell
#Created using the Atomic Simulation Environment (ASE)#
#######################################################

%BLOCK LATTICE_CART
 5.072223  0.000000  0.012741
 0.000000  5.778556  0.000000
-2.492587  0.000000  8.149969
%ENDBLOCK LATTICE_CART

%BLOCK POSITIONS_ABS
Li  1.426988  1.629643  3.311626
Li  1.152648  4.518921  4.851084
O -0.506966  4.256032  6.090338
O  2.280059  5.108511  6.326755
O -0.928813  0.849312  6.070558
O -1.243009  5.370311  8.140132
O  3.086602  1.366754  2.072372
O  0.299576  2.219233  1.835955
O  3.508448  3.738590  2.092152
O  3.822644  2.481033  0.022579
F  1.341834  5.526695  3.350362
F  1.237802  2.637417  4.812349
S -1.394171  5.329829  6.653645
S  3.973807  2.440551  1.509066
Fe  2.331784  5.258110  1.627958
Fe  0.247851  2.368832  6.534753
%ENDBLOCK POSITIONS_ABS

