#######################################################
#CASTEP cell file: refined_structures-pbe/122-2LiFeSO4F-200804-040655-dc7889.cell
#Created using the Atomic Simulation Environment (ASE)#
#######################################################

%BLOCK LATTICE_CART
 4.507768  0.172498  0.172449
-0.046377  6.646763 -0.073973
-0.046377 -0.072078  6.646784
%ENDBLOCK LATTICE_CART

%BLOCK POSITIONS_ABS
Li  1.856845  2.459849  0.197453
Li  1.856845  0.198155  2.459793
O  0.350670  6.545160  4.420809
O  3.226582  1.199805  3.315652
O  0.254894  2.309214  4.562093
O  2.994216  1.162458  5.739874
O  0.350670  4.422675  6.543900
O  3.226582  3.315993  1.198860
O  0.254894  4.562751  2.307913
O  2.994216  5.740206  1.160822
F  1.123489  0.912098  0.911838
F  2.408072  4.770844  4.769484
S  3.926961  1.253642  4.585955
S  3.926961  4.586313  1.252335
Fe  1.676143  6.149040  6.147288
Fe -0.024130  4.343062  4.341825
%ENDBLOCK POSITIONS_ABS

