#######################################################
#CASTEP cell file: refined_structures-pbe/123-4LiFeSO4F-200804-102650-9e4b7b.cell
#Created using the Atomic Simulation Environment (ASE)#
#######################################################

%BLOCK LATTICE_CART
 5.442138  0.000000  0.000000
 0.000000  9.369662  0.000000
 0.000000  0.000000  9.241590
%ENDBLOCK LATTICE_CART

%BLOCK POSITIONS_ABS
Li  2.619412  4.459003  1.335168
Li  2.619412  4.910659  7.906422
Li  2.822726  0.225828  5.955963
Li  2.822726  9.143833  3.285627
O  1.156601  4.138990  2.825583
O  4.171324  4.261525  2.490776
O  0.269700  5.762077  1.304691
O  5.294270  6.036942  3.691160
O  1.156601  5.230672  6.416007
O  4.171324  5.108137  6.750814
O  0.269700  3.607585  7.936899
O  5.294270  3.332720  5.550430
O  4.285537  0.545841  7.446378
O  1.270815  0.423306  7.111571
O  5.172439  8.292416  5.925486
O  0.147868  8.017551  8.311955
O  4.285537  8.823820  1.795212
O  1.270815  8.946355  2.130019
O  5.172439  1.077246  3.316104
O  0.147868  1.352111  0.929635
F  2.974086  6.013839  0.194352
F  2.974086  3.355822  9.047238
F  2.468052  8.040653  4.815147
F  2.468052  1.329008  4.426443
S  5.399986  5.048415  2.579111
S  5.399986  4.321246  6.662479
S  0.042152  9.006077  7.199906
S  0.042152  0.363585  2.041684
Fe  4.466934  2.160535  8.715872
Fe  4.466934  7.209127  0.525718
Fe  0.975204  2.524296  4.095077
Fe  0.975204  6.845365  5.146513
%ENDBLOCK POSITIONS_ABS

