#######################################################
#CASTEP cell file: refined_structures-pbe/124-4LiFeSO4F-200804-055150-6f244d.cell
#Created using the Atomic Simulation Environment (ASE)#
#######################################################

%BLOCK LATTICE_CART
 5.991980  0.000000  0.000000
 0.000000  8.293939  0.000000
 0.000000  0.000000  9.642684
%ENDBLOCK LATTICE_CART

%BLOCK POSITIONS_ABS
Li  0.999641  0.564814  1.759388
Li  0.999641  7.729125  7.883296
Li  0.999641  3.582155  6.580730
Li  0.999641  4.711784  3.061954
O  1.121018  1.932263  0.324957
O  2.186138  3.267462  8.187260
O  2.497660  0.862152  8.294291
O  3.541423  2.326024  0.315315
O  1.121018  6.361677  9.317727
O  2.186138  5.026478  1.455424
O  2.497660  7.431787  1.348393
O  3.541423  5.967915  9.327369
O  1.121018  2.214707  5.146299
O  2.186138  0.879508  3.365918
O  2.497660  3.284817  3.472949
O  3.541423  1.820946  5.136657
O  1.121018  6.079232  4.496385
O  2.186138  7.414431  6.276766
O  2.497660  5.009122  6.169735
O  3.541423  6.472994  4.506027
F  5.337305  3.958832  7.146934
F  5.337305  4.335107  2.495750
F  5.337305  0.188137  2.325592
F  5.337305  8.105802  7.317092
S  2.304977  2.098338  9.129810
S  2.304977  6.195601  0.512874
S  2.304977  2.048631  4.308468
S  2.304977  6.245308  5.334216
Fe  3.735558  7.760657  2.984598
Fe  3.735558  0.533282  6.658086
Fe  3.735558  4.680252  7.805940
Fe  3.735558  3.613688  1.836744
%ENDBLOCK POSITIONS_ABS

