#######################################################
#CASTEP cell file: refined_structures-pbe/125-4LiFeSO4F-200804-103706-e3f0e5.cell
#Created using the Atomic Simulation Environment (ASE)#
#######################################################

%BLOCK LATTICE_CART
 4.553046  0.000000  0.000000
 0.000000  6.139771  0.041981
 0.000000 -6.248215 14.715665
%ENDBLOCK LATTICE_CART

%BLOCK POSITIONS_ABS
Li  2.472504  4.604281  1.540126
Li  2.472504 -4.712726 13.217520
Li  3.055837  1.457034  8.819875
Li  3.055837 -1.565479  5.937771
O  3.253186  2.767583  2.184140
O  1.199693  1.528512  2.562681
O  3.253176  0.291509  2.168486
O  2.207016  1.539049  0.362984
O  3.253186 -2.876027 12.573506
O  1.199693 -1.636957 12.194965
O  3.253176 -0.399953 12.589160
O  2.207016 -1.647493 14.394662
O  0.774278 -1.620022  9.517887
O  2.844225 -0.386448  9.756890
O  2.375792 -1.597460  7.685597
O  2.847482 -2.852395  9.732150
O  0.774278  1.511578  5.239759
O  2.844225  0.278003  5.000756
O  2.375792  1.489016  7.072049
O  2.847482  2.743950  5.025496
F  0.861978 -4.706340 12.166289
F  0.861978  4.597896  2.591357
F  0.205905 -1.557397  5.075408
F  0.205905  1.448953  9.682238
S  2.501845  1.532349  1.781713
S  2.501845 -1.640794 12.975933
S  2.253069 -1.613987  9.129943
S  2.253069  1.505543  5.627703
Fe  0.192538 -0.141537 11.006391
Fe  0.192538  0.033093  3.751255
Fe  0.192373  3.009942  3.772700
Fe  0.192373 -3.118386 10.984946
%ENDBLOCK POSITIONS_ABS

