#######################################################
#CASTEP cell file: refined_structures-pbe/126-2LiFeSO4F-200804-031237-a7ea0d.cell
#Created using the Atomic Simulation Environment (ASE)#
#######################################################

%BLOCK LATTICE_CART
 5.694212  0.063200 -0.124110
 0.183426  5.706941  0.016234
 2.214456 -1.230603  7.873836
%ENDBLOCK LATTICE_CART

%BLOCK POSITIONS_ABS
Li  3.896641 -0.050056  0.937820
Li  4.195452  4.589594  6.828140
O  6.846039  1.957290  5.524557
O  6.050099  3.763455  6.960815
O  6.994296  4.261367  4.784669
O  2.743349  3.359460  6.707497
O  1.246054  2.582248  2.241402
O  2.041995  0.776083  0.805144
O  1.097798  0.278171  2.981291
O  5.348745  1.180078  1.058463
F  3.940069  4.535650  2.407576
F  4.152024  0.003888  5.358383
S  7.101339  3.332555  6.017446
S  0.990755  1.206983  1.748514
Fe  5.864330  0.450682  4.712437
Fe  2.227763  4.088856  3.053523
%ENDBLOCK POSITIONS_ABS

