#######################################################
#CASTEP cell file: refined_structures-pbe/127-4LiFeSO4F-200804-074137-1235fb.cell
#Created using the Atomic Simulation Environment (ASE)#
#######################################################

%BLOCK LATTICE_CART
 5.258910 -0.000000 -0.000000
 2.629456  9.069583 -0.183853
 2.629458  3.168034  8.330462
%ENDBLOCK LATTICE_CART

%BLOCK POSITIONS_ABS
Li  6.162026  5.630480  2.392271
Li  6.162026  9.557911  1.497182
Li  4.355793  6.607137  5.754339
Li  4.355793  2.679705  6.649428
O  4.433011  1.973600  0.527833
O  1.368610  2.778048  1.103522
O  8.330446  6.422565  7.209784
O  3.804774  4.173821  7.789835
O  7.062468  4.145209  3.545472
O  3.998065  3.340760  2.969782
O  3.071535  2.864277  5.193983
O  3.804773  5.113021  4.613931
O  6.084813 10.264017  7.618776
O  9.149214  9.459568  7.043087
O  2.187378  5.815052  0.936826
O  6.713045  8.063795  0.356774
O  3.455356  8.092408  4.601138
O  6.519759  8.896856  5.176827
O  7.446289  9.373339  2.952626
O  6.713051  7.124595  3.532678
F  5.705009  2.108253  5.228056
F  5.705010  7.178589  7.175710
F  4.812815 10.129363  2.918553
F  4.812808  5.059027  0.970899
S  8.421013  5.386067  8.270192
S  3.162101  3.900775  4.133575
S  2.096811  6.851550 -0.123583
S  7.355723  8.336841  4.013035
Fe  4.669624  9.910717  5.024141
Fe  7.299080  8.445708  7.195773
Fe  5.848200  2.326899  3.122469
Fe  3.218744  3.791909  0.950836
%ENDBLOCK POSITIONS_ABS

