#######################################################
#CASTEP cell file: refined_structures-pbe/128-4LiFeSO4F-200804-100534-468541.cell
#Created using the Atomic Simulation Environment (ASE)#
#######################################################

%BLOCK LATTICE_CART
 6.351827 -0.401387  0.000000
 0.106927  8.566649  0.000000
 0.000000  0.000000  8.108394
%ENDBLOCK LATTICE_CART

%BLOCK POSITIONS_ABS
Li  3.330001  2.133845  7.288931
Li  3.128754  6.031417  3.234734
Li  0.794649  2.852649  5.046501
Li  5.664105  5.312613  0.992304
O  4.769454  3.408962  6.932040
O  5.315321  5.751374  7.261211
O  3.715242  5.136439  5.561211
O  6.065394  4.536173  5.253458
O  1.689300  4.756300  2.877843
O  1.143433  2.413888  3.207014
O  2.743512  3.028823  1.507014
O  0.393361  3.629090  1.199261
O  1.156360  0.506375  0.482063
O  2.733880  8.009956  2.124432
O  2.105780  6.808455  0.095941
O  0.468522  7.178551  1.819538
O  5.302394  7.658887  4.536260
O  3.724874  0.155306  6.178629
O  4.352974  1.356807  4.150138
O  5.990233  0.986711  5.873735
F  4.777739  5.417900  2.644735
F  1.681016  2.747362  6.698932
F  4.562994  1.250825  0.523030
F  1.895760  6.914437  4.577226
S  4.970070  4.710718  6.267780
S  1.488685  3.454544  2.213583
S  1.633074  7.799789  1.112580
S  4.825681  0.365474  5.166777
Fe  0.071020  6.310703  3.714514
Fe  0.035907  2.255946  7.768711
Fe  2.892377  6.875120  6.349496
Fe  3.566377  1.290142  2.295300
%ENDBLOCK POSITIONS_ABS

