#######################################################
#CASTEP cell file: refined_structures-pbe/129-2LiFeSO4F-200804-041536-a14422.cell
#Created using the Atomic Simulation Environment (ASE)#
#######################################################

%BLOCK LATTICE_CART
 4.778441 -0.010941  0.038464
 0.018348  5.800077 -0.030985
 3.137334  2.955438  7.679164
%ENDBLOCK LATTICE_CART

%BLOCK POSITIONS_ABS
Li  5.632283  5.802180  2.449342
Li  2.301839  2.942393  5.237300
O  3.561606  2.897230  1.168546
O  1.495726  1.682372  1.557402
O  1.499934  4.121221  1.554457
O  2.567672  2.901731  3.376589
O  4.372517  5.847344  6.518096
O  6.438397  7.062202  6.129240
O  6.434188  4.623352  6.132185
O  5.366451  5.842843  4.310053
F  3.734393  2.947726  6.510922
F  4.199730  5.796848  1.175720
S  2.268789  2.900958  1.957798
S  5.665334  5.843616  5.728845
Fe  0.014045  4.164811 -0.020659
Fe  3.141636  4.590703  7.668837
%ENDBLOCK POSITIONS_ABS

